Ignoring PCI device with non-16bit domain
[hmnode006.cluster:mpi_rank_0][MPID_Init] [Performance Suggestion]: Application has requested for multi-thread capability. If allocating memory from different pthreads/OpenMP threads, please consider setting MV2_USE_ALIGNED_ALLOC=1 for improved performance.
Use MV2_USE_THREAD_WARNING=0 to suppress this error message.

     Program PWSCF v.7.5 starts on  3Jul2026 at 22:14:51 

     This program is part of the open-source Quantum ESPRESSO suite
     for quantum simulation of materials; please cite
         "P. Giannozzi et al., J. Phys.:Condens. Matter 21 395502 (2009);
         "P. Giannozzi et al., J. Phys.:Condens. Matter 29 465901 (2017);
         "P. Giannozzi et al., J. Chem. Phys. 152 154105 (2020);
          URL http://www.quantum-espresso.org", 
     in publications or presentations arising from this work. More details at
     http://www.quantum-espresso.org/quote

     Parallel version (MPI & OpenMP), running on      56 processor cores
     Number of MPI processes:                56
     Threads/MPI process:                     1

     MPI processes distributed on     1 nodes
     917666 MiB available memory on the printing compute node when the environment starts
 
     Waiting for input...
     Reading input from standard input

     Current dimensions of program PWSCF are:
     Max number of different atomic species (ntypx) = 10
     Max number of k-points (npk) =  40000
     Max angular momentum in pseudopotentials (lmaxx) =  4
 
     K-points division:     npool     =       4
     R & G space division:  proc/nbgrp/npool/nimage =      14
     Subspace diagonalization in iterative solution of the eigenvalue problem:
     a serial algorithm will be used

 
     Parallelization info
     --------------------
     sticks:   dense  smooth     PW     G-vecs:    dense   smooth      PW
     Min          35      35     11                  507      507      99
     Max          36      36     12                  509      509     102
     Sum         499     499    163                 7119     7119    1411
 
     Using Slab Decomposition
 


     bravais-lattice index     =            0
     lattice parameter (alat)  =       5.4237  a.u.
     unit-cell volume          =     112.8194 (a.u.)^3
     number of atoms/cell      =            2
     number of atomic types    =            2
     number of electrons       =        10.00
     number of Kohn-Sham states=          100
     kinetic-energy cutoff     =      60.0000  Ry
     charge density cutoff     =     240.0000  Ry
     scf convergence threshold =      1.0E-06
     mixing beta               =       0.7000
     number of iterations used =            8  plain     mixing
     Exchange-correlation= SLA  PW   NOGX NOGC
                           (   1   4   0   0   0   0   0)

     celldm(1)=   5.423749  celldm(2)=   0.000000  celldm(3)=   0.000000
     celldm(4)=   0.000000  celldm(5)=   0.000000  celldm(6)=   0.000000

     crystal axes: (cart. coord. in units of alat)
               a(1) = (  -0.707107   0.000000   0.707107 )  
               a(2) = (   0.000000   0.707107   0.707107 )  
               a(3) = (  -0.707107   0.707107   0.000000 )  

     reciprocal axes: (cart. coord. in units 2 pi/alat)
               b(1) = ( -0.707107 -0.707107  0.707107 )  
               b(2) = (  0.707107  0.707107  0.707107 )  
               b(3) = ( -0.707107  0.707107 -0.707107 )  


     PseudoPot. # 1 for Li read from file:
     ../Li.upf
     MD5 check sum: cbd9518a540ce8f7f4a0218f2f072fdd
     Pseudo is Norm-conserving, Zval =  3.0
     Generated using ONCVPSP code by D. R. Hamann
     Using radial grid of 1944 points,  4 beta functions with: 
                l(1) =   0
                l(2) =   0
                l(3) =   1
                l(4) =   1

     PseudoPot. # 2 for F  read from file:
     ../F.upf
     MD5 check sum: 3dea638f9c9153f3282cad43c3474f58
     Pseudo is Norm-conserving + core correction, Zval =  7.0
     Generated using ONCVPSP code by D. R. Hamann
     Using radial grid of  824 points,  5 beta functions with: 
                l(1) =   0
                l(2) =   0
                l(3) =   1
                l(4) =   1
                l(5) =   2

     atomic species   valence    mass     pseudopotential
     Li                3.00     6.94100     Li( 1.00)
     F                 7.00    18.99840     F ( 1.00)

     No symmetry found



   Cartesian axes

     site n.     atom                  positions (alat units)
         1        Li     tau(   1) = (   0.0000000   0.0000000   0.0000000  )
         2        F      tau(   2) = (  -0.7071068   0.7071068   0.7071068  )

     number of k points=    64  Gaussian smearing, width (Ry)=  0.0010
                       cart. coord. in units 2pi/alat
        k(    1) = (  -0.0007071   0.0007071  -0.0007071), wk =   0.0312500
        k(    2) = (  -0.1774838   0.1774838  -0.1774838), wk =   0.0312500
        k(    3) = (  -0.3542605   0.3542605  -0.3542605), wk =   0.0312500
        k(    4) = (  -0.5310372   0.5310372  -0.5310372), wk =   0.0312500
        k(    5) = (   0.1760696   0.1774838   0.1760696), wk =   0.0312500
        k(    6) = (  -0.0007071   0.3542605  -0.0007071), wk =   0.0312500
        k(    7) = (  -0.1774838   0.5310372  -0.1774838), wk =   0.0312500
        k(    8) = (  -0.3542605   0.7078139  -0.3542605), wk =   0.0312500
        k(    9) = (   0.3528463   0.3542605   0.3528463), wk =   0.0312500
        k(   10) = (   0.1760696   0.5310372   0.1760696), wk =   0.0312500
        k(   11) = (  -0.0007071   0.7078139  -0.0007071), wk =   0.0312500
        k(   12) = (  -0.1774838   0.8845906  -0.1774838), wk =   0.0312500
        k(   13) = (   0.5296230   0.5310372   0.5296230), wk =   0.0312500
        k(   14) = (   0.3528463   0.7078139   0.3528463), wk =   0.0312500
        k(   15) = (   0.1760696   0.8845906   0.1760696), wk =   0.0312500
        k(   16) = (  -0.0007071   1.0613673  -0.0007071), wk =   0.0312500
        k(   17) = (  -0.1774838  -0.1760696   0.1760696), wk =   0.0312500
        k(   18) = (  -0.3542605   0.0007071  -0.0007071), wk =   0.0312500
        k(   19) = (  -0.5310372   0.1774838  -0.1774838), wk =   0.0312500
        k(   20) = (  -0.7078139   0.3542605  -0.3542605), wk =   0.0312500
        k(   21) = (  -0.0007071   0.0007071   0.3528463), wk =   0.0312500
        k(   22) = (  -0.1774838   0.1774838   0.1760696), wk =   0.0312500
        k(   23) = (  -0.3542605   0.3542605  -0.0007071), wk =   0.0312500
        k(   24) = (  -0.5310372   0.5310372  -0.1774838), wk =   0.0312500
        k(   25) = (   0.1760696   0.1774838   0.5296230), wk =   0.0312500
        k(   26) = (  -0.0007071   0.3542605   0.3528463), wk =   0.0312500
        k(   27) = (  -0.1774838   0.5310372   0.1760696), wk =   0.0312500
        k(   28) = (  -0.3542605   0.7078139  -0.0007071), wk =   0.0312500
        k(   29) = (   0.3528463   0.3542605   0.7063997), wk =   0.0312500
        k(   30) = (   0.1760696   0.5310372   0.5296230), wk =   0.0312500
        k(   31) = (  -0.0007071   0.7078139   0.3528463), wk =   0.0312500
        k(   32) = (  -0.1774838   0.8845906   0.1760696), wk =   0.0312500
        k(   33) = (  -0.3542605  -0.3528463   0.3528463), wk =   0.0312500
        k(   34) = (  -0.5310372  -0.1760696   0.1760696), wk =   0.0312500
        k(   35) = (  -0.7078139   0.0007071  -0.0007071), wk =   0.0312500
        k(   36) = (  -0.8845906   0.1774838  -0.1774838), wk =   0.0312500
        k(   37) = (  -0.1774838  -0.1760696   0.5296230), wk =   0.0312500
        k(   38) = (  -0.3542605   0.0007071   0.3528463), wk =   0.0312500
        k(   39) = (  -0.5310372   0.1774838   0.1760696), wk =   0.0312500
        k(   40) = (  -0.7078139   0.3542605  -0.0007071), wk =   0.0312500
        k(   41) = (  -0.0007071   0.0007071   0.7063997), wk =   0.0312500
        k(   42) = (  -0.1774838   0.1774838   0.5296230), wk =   0.0312500
        k(   43) = (  -0.3542605   0.3542605   0.3528463), wk =   0.0312500
        k(   44) = (  -0.5310372   0.5310372   0.1760696), wk =   0.0312500
        k(   45) = (   0.1760696   0.1774838   0.8831764), wk =   0.0312500
        k(   46) = (  -0.0007071   0.3542605   0.7063997), wk =   0.0312500
        k(   47) = (  -0.1774838   0.5310372   0.5296230), wk =   0.0312500
        k(   48) = (  -0.3542605   0.7078139   0.3528463), wk =   0.0312500
        k(   49) = (  -0.5310372  -0.5296230   0.5296230), wk =   0.0312500
        k(   50) = (  -0.7078139  -0.3528463   0.3528463), wk =   0.0312500
        k(   51) = (  -0.8845906  -0.1760696   0.1760696), wk =   0.0312500
        k(   52) = (  -1.0613673   0.0007071  -0.0007071), wk =   0.0312500
        k(   53) = (  -0.3542605  -0.3528463   0.7063997), wk =   0.0312500
        k(   54) = (  -0.5310372  -0.1760696   0.5296230), wk =   0.0312500
        k(   55) = (  -0.7078139   0.0007071   0.3528463), wk =   0.0312500
        k(   56) = (  -0.8845906   0.1774838   0.1760696), wk =   0.0312500
        k(   57) = (  -0.1774838  -0.1760696   0.8831764), wk =   0.0312500
        k(   58) = (  -0.3542605   0.0007071   0.7063997), wk =   0.0312500
        k(   59) = (  -0.5310372   0.1774838   0.5296230), wk =   0.0312500
        k(   60) = (  -0.7078139   0.3542605   0.3528463), wk =   0.0312500
        k(   61) = (  -0.0007071   0.0007071   1.0599531), wk =   0.0312500
        k(   62) = (  -0.1774838   0.1774838   0.8831764), wk =   0.0312500
        k(   63) = (  -0.3542605   0.3542605   0.7063997), wk =   0.0312500
        k(   64) = (  -0.5310372   0.5310372   0.5296230), wk =   0.0312500

     Dense  grid:     7119 G-vectors     FFT dimensions: (  27,  27,  27)

     Estimated max dynamical RAM per process >      11.88 MB

     Estimated total dynamical RAM >     660.28 MB

     Check: negative core charge=   -0.000008

     Initial potential from superposition of free atoms

     starting charge       9.9953, renormalised to      10.0000
     Starting wfcs are    6 randomized atomic wfcs +   94 random wfcs

     total cpu time spent up to now is        0.2 secs

     Self-consistent Calculation

     iteration #  1     ecut=    60.00 Ry     beta= 0.70
     Davidson diagonalization with overlap
     ethr =  1.00E-02,  avg # of iterations =  4.0

     Threshold (ethr) on eigenvalues was too large:
     Diagonalizing with lowered threshold

     Davidson diagonalization with overlap
     ethr =  9.74E-04,  avg # of iterations =  1.0

     total cpu time spent up to now is        2.4 secs

     total energy              =     -63.60682179 Ry
     estimated scf accuracy    <       0.09738750 Ry

     iteration #  2     ecut=    60.00 Ry     beta= 0.70
     Davidson diagonalization with overlap
     ethr =  9.74E-04,  avg # of iterations =  2.0

     total cpu time spent up to now is        3.1 secs

     total energy              =     -63.63022975 Ry
     estimated scf accuracy    <       0.06303695 Ry

     iteration #  3     ecut=    60.00 Ry     beta= 0.70
     Davidson diagonalization with overlap
     ethr =  6.30E-04,  avg # of iterations =  1.0

     total cpu time spent up to now is        3.6 secs

     total energy              =     -63.64401956 Ry
     estimated scf accuracy    <       0.00058414 Ry

     iteration #  4     ecut=    60.00 Ry     beta= 0.70
     Davidson diagonalization with overlap
     ethr =  5.84E-06,  avg # of iterations =  2.9

     total cpu time spent up to now is        4.7 secs

     total energy              =     -63.64408705 Ry
     estimated scf accuracy    <       0.00000317 Ry

     iteration #  5     ecut=    60.00 Ry     beta= 0.70
     Davidson diagonalization with overlap
     ethr =  3.17E-08,  avg # of iterations =  2.8

     total cpu time spent up to now is        5.9 secs

     End of self-consistent calculation

          k =-0.0007 0.0007-0.0007 (   893 PWs)   bands (ev):

   -39.4140 -19.1750   0.3112   0.3113   0.3113   8.9735  23.5287  23.5294
    23.5294  24.0857  24.0857  24.0861  26.9601  31.1984  31.1984  44.3183
    44.3185  44.3185  48.0079  64.2862  64.2862  64.2865  66.6066  67.6754
    67.6754  68.5286  68.5313  68.5313  68.8133  68.8133  68.8134  84.1453
    84.1453  90.0210  90.0212  90.0212  93.9874  93.9874  93.9886  95.4476
    95.4499  95.4499  96.4406  96.4406  96.4421  97.0297  98.0968  98.0988
    98.0988  98.8806  98.8806  98.8879  99.3786  99.3786  99.8549 102.3385
   102.3418 102.3418 103.3050 121.9918 121.9918 121.9919 128.4049 134.4624
   134.4624 142.5383 142.5385 142.5385 149.0230 156.2074 156.2074 156.2078
   162.0991 162.0991 162.4783 162.4783 162.4787 163.1669 163.1709 163.1709
   166.3778 169.1564 169.1579 169.1579 169.5192 170.1690 170.1690 170.1789
   170.5877 170.5877 170.9091 170.9091 170.9552 171.0469 171.0469 171.6603
   171.6603 171.6622 174.1052 174.1080

          k =-0.1775 0.1775-0.1775 (   896 PWs)   bands (ev):

   -39.3826 -18.9690  -1.0484   0.1929   0.1929  10.2117  17.6781  20.2290
    20.2290  26.6510  27.2293  27.2293  34.8061  34.8061  36.5957  39.7057
    45.3865  45.3865  47.9633  53.4913  53.4913  62.0006  66.1508  66.1508
    66.7341  67.6475  67.6475  70.2386  74.9119  76.2946  76.2946  78.5794
    81.3187  81.3187  82.8905  83.9456  84.7006  84.7006  89.2505  89.2505
    92.1617  92.1617  92.6469  94.7093  94.7093  94.7504 102.5030 104.8151
   104.8151 108.9475 109.4208 109.4208 110.3993 110.3993 111.3989 113.8580
   116.2762 116.2762 116.8244 120.5378 120.6359 120.6359 129.0454 129.0454
   130.1465 135.7707 138.1822 138.1822 142.7163 145.9292 145.9292 147.7014
   147.7014 150.0613 150.3163 150.3163 152.1459 155.5693 155.5693 159.1370
   159.2390 159.2390 161.8423 162.6549 163.8354 163.8354 166.9185 168.2658
   168.2658 168.9789 170.2353 170.2353 171.8476 174.8297 174.8297 174.9689
   176.4494 178.2118 178.2118 179.4730

          k =-0.3543 0.3543-0.3543 (   886 PWs)   bands (ev):

   -39.3507 -18.7498  -2.1750   0.0920   0.0920  10.6280  16.4703  18.6203
    18.6203  30.0608  30.5574  30.5574  33.1296  36.6440  36.6440  44.6605
    44.6605  46.7097  52.1287  52.3420  52.3420  54.7463  60.6694  60.6694
    65.0338  67.8446  70.1401  70.1401  71.1817  71.1817  74.6528  74.7105
    74.7105  74.8988  76.1437  86.2179  86.2179  89.6946  90.2162  90.2162
    91.4357  97.0078  98.6080  98.6080 102.4504 102.8217 102.8217 107.6403
   108.3329 108.3329 109.5591 109.5591 116.2554 119.3620 119.3620 121.2726
   122.8862 122.8862 123.9615 126.5324 126.5324 127.5453 127.5453 128.2305
   128.7019 128.7019 128.9031 128.9031 130.0018 130.2200 139.7628 141.9664
   142.4365 142.4365 147.6673 147.6673 148.1136 148.1136 148.8301 158.2716
   158.2716 159.0057 159.2505 161.7901 161.7901 162.6145 164.1144 165.1385
   165.1385 166.0103 169.3958 172.1350 172.1350 174.8349 174.9175 174.9175
   178.4677 178.4677 179.1506 180.0999

          k =-0.5310 0.5310-0.5310 (   896 PWs)   bands (ev):

   -39.3830 -18.9716  -1.0330   0.1943   0.1943  10.2006  17.7075  20.2535
    20.2535  26.6236  27.1962  27.1962  34.7699  34.7699  36.5299  39.7176
    45.3730  45.3730  47.9740  53.5650  53.5650  62.0060  66.1902  66.1902
    66.7586  67.6235  67.6235  70.2116  74.9021  76.3869  76.3869  78.7145
    81.3931  81.3931  82.8731  84.0273  84.6124  84.6124  89.2014  89.2014
    92.1844  92.1844  92.6556  94.6956  94.6956  94.7800 102.4312 104.7347
   104.7347 108.8897 109.3456 109.3456 110.2898 110.2898 111.2623 113.8289
   116.2942 116.2942 116.7603 120.4364 120.4364 120.5483 129.1529 129.1529
   129.9911 135.9029 138.3287 138.3287 142.8043 146.0816 146.0816 147.8058
   147.8058 150.0482 150.4915 150.4915 152.3354 155.4742 155.4742 159.1509
   159.2528 159.2528 161.8556 162.6596 163.8517 163.8517 166.9741 168.3041
   168.3041 169.0215 170.2012 170.2012 171.8366 174.7746 174.7746 174.9137
   176.5369 178.3811 178.3811 179.4938

          k = 0.1761 0.1775 0.1761 (   896 PWs)   bands (ev):

   -39.3828 -18.9708  -1.0381   0.1928   0.1949  10.2043  17.6977  20.2443
    20.2463  26.6322  27.1929  27.2222  34.7788  34.7851  36.5523  39.7132
    45.3611  45.3939  47.9705  53.5282  53.5524  62.0041  66.1725  66.1810
    66.7506  67.6272  67.6354  70.2219  74.9053  76.3501  76.3622  78.6694
    81.3667  81.3688  82.8785  84.0012  84.6253  84.6590  89.2101  89.2243
    92.1688  92.1808  92.6558  94.6697  94.7178  94.7845 102.4545 104.7507
   104.7728 108.9055 109.3667 109.3766 110.3146 110.3371 111.3108 113.8394
   116.2450 116.3292 116.7828 120.4778 120.5200 120.5531 129.1089 129.1256
   130.0428 135.8586 138.2627 138.2971 142.7744 146.0031 146.0587 147.7542
   147.7872 150.0518 150.4323 150.4331 152.2741 155.4866 155.5247 159.1380
   159.2303 159.2731 161.8502 162.6581 163.8075 163.8867 166.9556 168.2403
   168.3332 169.0173 170.1590 170.2645 171.8419 174.7051 174.8485 174.9650
   176.5066 178.3202 178.3363 179.4654

          k =-0.0007 0.3543-0.0007 (   881 PWs)   bands (ev):

   -39.3722 -18.8724  -1.1064  -0.1915  -0.1915  11.2659  18.5524  19.4458
    20.2694  20.2697  32.6328  32.6330  33.3601  34.3777  37.0617  42.7906
    42.9958  42.9981  49.8946  52.3578  55.3134  55.3137  64.0394  66.1706
    66.9495  66.9505  67.4729  73.1498  73.1504  73.3857  73.4139  80.9160
    84.0519  84.1668  84.1686  85.3829  85.4495  85.4678  88.5328  88.8053
    89.8288  89.8329  90.8671  90.9262  97.2799  97.2801 100.4568 102.9136
   106.2626 108.1999 108.3865 108.3903 109.4697 112.7705 114.1657 114.1658
   122.8454 123.6035 123.6045 124.5614 124.5617 127.0561 128.3542 128.5760
   134.9366 135.2256 135.2267 138.3045 139.1809 140.3642 140.3649 141.8424
   143.9092 144.5863 144.5893 145.8400 150.6693 150.6701 154.0823 155.9254
   156.5394 157.5764 157.5828 158.4184 162.1119 166.4757 166.4765 168.7781
   171.4516 172.9040 175.0798 175.0813 176.9983 177.0047 177.1711 177.3763
   177.6025 178.2012 178.2027 178.3252

          k =-0.1775 0.5310-0.1775 (   888 PWs)   bands (ev):

   -39.3426 -18.6179  -2.0371  -0.8438  -0.3044  12.7807  15.5938  18.4669
    19.2731  23.7350  32.5283  33.2448  36.3396  37.8957  38.0133  43.0536
    45.1734  49.1648  50.1821  51.7397  54.7174  55.9390  56.3826  58.8698
    61.2426  62.0054  67.1695  67.4932  69.7545  72.1118  75.1435  75.2445
    75.9860  80.9818  83.0689  84.3121  85.7889  89.1259  89.5809  89.8647
    94.8403  95.9252  98.4959 101.4500 102.2970 103.7270 105.7146 106.0169
   107.1265 108.6097 108.9017 110.6357 115.5015 115.7488 118.7189 119.5044
   120.5758 122.0737 122.3097 122.5802 126.9248 129.5245 130.1118 131.1150
   133.0387 133.7108 134.0106 134.7457 135.9232 137.3328 138.5524 139.1018
   141.6057 141.9780 145.1384 146.9886 147.5522 148.3166 151.0938 152.0830
   154.7236 154.7253 155.0620 157.0347 157.0559 159.4774 161.3431 161.7641
   162.5128 165.3930 166.9871 168.2722 170.2293 172.5844 173.7074 174.1551
   176.9872 178.0289 179.5730 180.0250

          k =-0.3543 0.7078-0.3543 (   883 PWs)   bands (ev):

   -39.3518 -18.7245  -1.5246  -1.0000   0.0760  11.9060  15.5660  19.1706
    19.1743  28.5976  28.6395  28.7202  36.5255  36.6305  39.6493  42.5509
    46.4713  47.6644  48.9162  52.3015  52.7491  55.1174  57.8348  64.1064
    64.2928  65.1751  66.9785  67.8711  71.3456  72.2108  73.1436  76.1584
    78.4099  80.8471  82.2881  83.3187  85.2478  85.4418  88.7570  92.3776
    94.0661  97.2462  98.1139  98.6212 101.4086 104.3831 104.9328 105.5626
   105.7058 106.7795 108.2061 109.4287 112.7765 116.0396 116.3321 119.0043
   119.4074 119.6089 121.5838 124.1080 124.3269 127.6892 129.0177 132.4528
   133.1719 133.4425 136.1427 136.3997 137.6156 138.1722 138.5755 141.7042
   141.9782 142.2799 143.7918 146.3767 150.0440 150.6613 151.7449 153.8948
   155.1469 155.4717 157.9373 159.4869 161.0284 162.1196 162.3739 163.2297
   163.6585 163.9474 164.0827 166.4098 171.3634 172.1046 173.6985 176.2271
   176.8589 177.2864 179.6180 180.5291

          k = 0.3528 0.3543 0.3528 (   886 PWs)   bands (ev):

   -39.3507 -18.7498  -2.1750   0.0920   0.0920  10.6281  16.4703  18.6202
    18.6202  30.0609  30.5572  30.5576  33.1297  36.6440  36.6441  44.6603
    44.6604  46.7099  52.1301  52.3421  52.3423  54.7449  60.6691  60.6693
    65.0336  67.8445  70.1397  70.1400  71.1809  71.1819  74.6541  74.7082
    74.7106  74.8988  76.1457  86.2172  86.2176  89.6908  90.2164  90.2203
    91.4359  97.0082  98.6082  98.6084 102.4497 102.8216 102.8216 107.6403
   108.3372 108.3390 109.5531 109.5553 116.2556 119.3621 119.3630 121.2724
   122.8849 122.8852 123.9610 126.5365 126.5367 127.5390 127.5396 128.2319
   128.7303 128.7361 128.8659 128.8767 130.0362 130.1905 139.7665 141.9624
   142.4365 142.4365 147.6883 147.6972 148.0837 148.0924 148.8301 158.2697
   158.2707 159.0118 159.2459 161.7851 161.7900 162.6195 164.1147 165.1306
   165.1397 166.0191 169.3946 172.1348 172.1356 174.8245 174.9185 174.9273
   178.4658 178.4670 179.1450 180.1006

          k = 0.1761 0.5310 0.1761 (   888 PWs)   bands (ev):

   -39.3426 -18.6175  -2.0380  -0.8429  -0.3076  12.7924  15.5976  18.4611
    19.2805  23.6899  32.5511  33.2729  36.3458  37.9050  38.0375  43.0101
    45.1792  49.1186  50.1500  51.7417  54.7415  55.9442  56.3162  58.8900
    61.2364  62.0830  67.1378  67.5506  69.7242  72.1322  75.1430  75.2932
    76.0087  80.9720  83.0468  84.2796  85.7740  89.1177  89.6039  89.8761
    94.9303  95.8991  98.3683 101.3420 102.3326 103.7599 105.5982 106.0396
   107.1449 108.5969 108.8602 110.6767 115.5872 115.7444 118.6942 119.6099
   120.6145 122.1159 122.3663 122.5797 127.0346 129.4215 130.0917 131.0893
   133.0127 133.7991 133.8581 134.7153 136.0233 137.3320 138.4661 139.0996
   141.5856 142.0320 145.2017 146.9101 147.5162 148.3378 151.0198 151.9288
   154.7432 154.9097 154.9957 156.9535 157.0683 159.5375 161.3632 161.7197
   162.6399 165.5717 167.0189 168.2762 170.1554 172.4327 173.7914 174.1841
   176.9799 177.9578 179.5868 179.9881

          k =-0.0007 0.7078-0.0007 (   894 PWs)   bands (ev):

   -39.3345 -18.4817  -2.6786  -0.6730  -0.6730  14.5610  16.3186  17.2356
    19.8615  19.8616  32.9442  37.9200  39.3727  41.0665  41.0675  43.2836
    43.5669  43.5670  48.6399  48.6400  52.7037  53.1215  57.6174  57.6175
    59.9617  60.4814  69.6667  71.4689  73.4030  73.4033  75.2824  77.8390
    77.8461  78.3255  78.6584  79.2380  85.2879  87.5876  87.5915  88.1800
    88.6916  98.6937  98.6937 100.3950 107.6264 107.6267 108.9886 110.9297
   112.4030 112.4039 112.7886 113.5907 115.6884 115.6891 117.9209 119.1473
   121.0326 122.6941 124.0178 124.0208 124.5149 124.5197 125.3041 125.4234
   128.1815 128.1816 131.7300 133.4347 139.6174 144.6301 146.0891 146.0893
   146.2320 147.0160 147.3042 147.3058 147.7488 148.0756 151.0783 151.4892
   151.5223 151.7214 151.7236 151.7295 154.3938 155.9047 157.9158 157.9158
   158.0557 158.0558 162.5824 162.7291 168.4106 168.4113 174.2348 175.0404
   179.3165 181.5723 182.4493 182.4503

          k =-0.1775 0.8846-0.1775 (   888 PWs)   bands (ev):

   -39.3427 -18.6192  -2.0350  -0.8382  -0.3028  12.7661  15.6013  18.4709
    19.2728  23.7431  32.5240  33.2303  36.3565  37.8527  38.0195  43.0234
    45.1758  49.1363  50.1830  51.7186  54.7140  55.9778  56.4212  58.8654
    61.2978  62.0203  67.2070  67.4929  69.7686  72.1290  75.1364  75.2447
    75.9907  81.0085  83.0566  84.3327  85.7800  89.1700  89.5301  89.8026
    94.7766  95.9128  98.5166 101.4587 102.2622 103.6755 105.7096 106.0116
   107.1246 108.5942 108.8507 110.6480 115.5478 115.7693 118.7351 119.4463
   120.5861 122.1210 122.3757 122.5318 126.9118 129.4830 130.1006 131.1361
   133.0774 133.7271 133.9490 134.7090 135.9621 137.3282 138.6457 138.9819
   141.4761 142.0100 145.1942 147.0378 147.5635 148.3423 150.9708 152.1630
   154.7035 154.7132 155.0670 157.0384 157.0411 159.4655 161.4100 161.8385
   162.5553 165.4338 166.9941 168.2790 170.2509 172.6147 173.7747 174.2567
   177.0951 178.0766 179.5804 180.0457

          k = 0.5296 0.5310 0.5296 (   896 PWs)   bands (ev):

   -39.3827 -18.9699  -1.0433   0.1923   0.1945  10.2080  17.6879  20.2361
    20.2381  26.6414  27.2034  27.2337  34.7909  34.7972  36.5743  39.7092
    45.3655  45.3985  47.9669  53.5036  53.5279  62.0023  66.1591  66.1681
    66.7424  67.6340  67.6446  70.2309  74.9085  76.3192  76.3316  78.6244
    81.3408  81.3452  82.8843  83.9740  84.6548  84.6882  89.2262  89.2409
    92.1657  92.1687  92.6528  94.6678  94.7353  94.7682 102.4785 104.7769
   104.8002 108.9249 109.3957 109.3976 110.3489 110.3757 111.3563 113.8491
   116.2406 116.3214 116.8044 120.5283 120.5575 120.5945 129.0730 129.0898
   130.0946 135.8145 138.2140 138.2481 142.7451 145.9531 146.0072 147.7194
   147.7524 150.0562 150.3719 150.3766 152.2109 155.5187 155.5558 159.1310
   159.2372 159.2594 161.8459 162.6564 163.8023 163.8812 166.9371 168.2376
   168.3093 169.0042 170.1716 170.2745 171.8457 174.7563 174.8132 175.0043
   176.4774 178.2614 178.2821 179.4526

          k = 0.3528 0.7078 0.3528 (   883 PWs)   bands (ev):

   -39.3515 -18.7223  -1.5275  -1.0098   0.0728  11.9225  15.5522  19.1644
    19.1684  28.6338  28.6711  28.6852  36.5332  36.6182  39.6915  42.5657
    46.5573  47.6455  48.9427  52.3529  52.7130  55.0693  57.7895  64.0635
    64.2819  65.0677  66.9139  67.8968  71.2498  72.1772  73.1325  76.1414
    78.3986  80.8868  82.2549  83.2899  85.2791  85.4960  88.8558  92.4148
    94.1098  97.2804  98.1520  98.6081 101.3682 104.4152 104.9600 105.6114
   105.7795 106.8185 108.2469 109.3927 112.8045 116.1320 116.3055 119.1128
   119.4836 119.5155 121.4814 123.9925 124.3676 127.7065 128.9136 132.4098
   133.3239 133.3485 136.1433 136.5649 137.5231 138.1587 138.7566 141.6672
   141.8699 142.3355 143.9275 146.3206 150.0083 150.6212 151.7037 153.8266
   155.1181 155.4080 157.9023 159.4493 160.8969 162.0602 162.3184 163.1551
   163.5760 163.9211 163.9343 166.3875 171.4011 172.2299 173.7357 176.2518
   176.9420 177.1657 179.5279 180.4591

          k = 0.1761 0.8846 0.1761 (   888 PWs)   bands (ev):

   -39.3427 -18.6189  -2.0358  -0.8373  -0.3060  12.7777  15.6050  18.4652
    19.2802  23.6979  32.5468  33.2582  36.3626  37.8621  38.0437  42.9800
    45.1815  49.0894  50.1511  51.7215  54.7374  55.9830  56.3548  58.8858
    61.2914  62.0980  67.1759  67.5501  69.7378  72.1497  75.1357  75.2934
    76.0133  80.9987  83.0342  84.3010  85.7659  89.1600  89.5544  89.8133
    94.8665  95.8862  98.3893 101.3504 102.2978 103.7077 105.5945 106.0350
   107.1382 108.5813 108.8121 110.6890 115.6333 115.7655 118.7072 119.5516
   120.6283 122.1567 122.4326 122.5371 127.0220 129.3774 130.0832 131.1114
   133.0546 133.7969 133.8129 134.6784 136.0612 137.3265 138.5595 138.9796
   141.4559 142.0626 145.2592 146.9626 147.5275 148.3601 150.8968 152.0088
   154.7100 154.8895 155.0224 156.9568 157.0544 159.5240 161.4337 161.7945
   162.6794 165.6119 167.0265 168.2835 170.1764 172.4632 173.8637 174.2801
   177.0890 178.0071 179.5930 180.0104

          k =-0.0007 1.0614-0.0007 (   881 PWs)   bands (ev):

   -39.3725 -18.8745  -1.0970  -0.1884  -0.1884  11.2498  18.5703  19.4605
    20.2749  20.2751  32.5877  32.5879  33.3432  34.3821  37.0075  42.8002
    43.0058  43.0080  49.8660  52.4109  55.3421  55.3424  64.0471  66.1570
    66.9862  66.9871  67.4679  73.1835  73.1841  73.3998  73.4746  80.9272
    84.0418  84.0969  84.1003  85.4185  85.4918  85.5082  88.5667  88.7173
    89.8468  89.8510  90.8685  90.9441  97.2424  97.2426 100.5403 102.8639
   106.2102 108.1375 108.3328 108.3366 109.4153 112.7331 114.1437 114.1437
   122.7549 123.5366 123.5374 124.4743 124.4747 127.0515 128.4128 128.4491
   134.9608 135.2556 135.2567 138.3147 139.2363 140.4785 140.4792 141.9286
   144.0324 144.6747 144.6777 145.9312 150.6838 150.6846 154.1198 155.9420
   156.5404 157.6145 157.6208 158.4676 162.1472 166.4799 166.4808 168.7709
   171.4458 172.8281 175.0862 175.0877 177.0601 177.0661 177.2140 177.3587
   177.6869 178.1827 178.1842 178.3503

          k =-0.1775-0.1761 0.1761 (   896 PWs)   bands (ev):

   -39.3828 -18.9708  -1.0381   0.1928   0.1949  10.2043  17.6977  20.2443
    20.2463  26.6322  27.1929  27.2222  34.7788  34.7851  36.5523  39.7132
    45.3611  45.3939  47.9705  53.5282  53.5524  62.0041  66.1725  66.1810
    66.7506  67.6272  67.6354  70.2219  74.9053  76.3501  76.3622  78.6694
    81.3667  81.3688  82.8785  84.0012  84.6253  84.6590  89.2101  89.2243
    92.1688  92.1808  92.6558  94.6697  94.7178  94.7845 102.4545 104.7507
   104.7728 108.9055 109.3667 109.3766 110.3146 110.3371 111.3108 113.8394
   116.2450 116.3292 116.7828 120.4778 120.5200 120.5531 129.1089 129.1256
   130.0428 135.8586 138.2627 138.2971 142.7744 146.0031 146.0587 147.7542
   147.7872 150.0518 150.4323 150.4331 152.2741 155.4866 155.5247 159.1380
   159.2303 159.2731 161.8502 162.6581 163.8075 163.8867 166.9556 168.2403
   168.3332 169.0173 170.1590 170.2645 171.8419 174.7051 174.8485 174.9650
   176.5066 178.3202 178.3363 179.4654

          k =-0.3543 0.0007-0.0007 (   881 PWs)   bands (ev):

   -39.3722 -18.8724  -1.1064  -0.1915  -0.1915  11.2659  18.5524  19.4458
    20.2694  20.2697  32.6328  32.6330  33.3601  34.3777  37.0617  42.7906
    42.9958  42.9981  49.8946  52.3578  55.3134  55.3137  64.0394  66.1706
    66.9495  66.9505  67.4729  73.1498  73.1504  73.3857  73.4139  80.9160
    84.0519  84.1668  84.1686  85.3829  85.4495  85.4678  88.5328  88.8053
    89.8288  89.8329  90.8671  90.9262  97.2799  97.2801 100.4568 102.9136
   106.2626 108.1999 108.3865 108.3903 109.4697 112.7705 114.1657 114.1658
   122.8454 123.6035 123.6045 124.5614 124.5617 127.0561 128.3542 128.5760
   134.9366 135.2256 135.2267 138.3045 139.1809 140.3642 140.3649 141.8424
   143.9092 144.5863 144.5893 145.8400 150.6693 150.6701 154.0823 155.9254
   156.5394 157.5764 157.5828 158.4184 162.1119 166.4757 166.4765 168.7781
   171.4516 172.9040 175.0798 175.0813 176.9983 177.0047 177.1711 177.3763
   177.6025 178.2012 178.2027 178.3252

          k =-0.5310 0.1775-0.1775 (   888 PWs)   bands (ev):

   -39.3426 -18.6179  -2.0371  -0.8438  -0.3044  12.7807  15.5938  18.4669
    19.2731  23.7350  32.5283  33.2448  36.3396  37.8957  38.0133  43.0536
    45.1734  49.1648  50.1821  51.7397  54.7174  55.9390  56.3826  58.8698
    61.2426  62.0054  67.1695  67.4932  69.7545  72.1118  75.1435  75.2445
    75.9860  80.9818  83.0689  84.3121  85.7889  89.1259  89.5809  89.8647
    94.8403  95.9252  98.4959 101.4500 102.2970 103.7270 105.7146 106.0169
   107.1265 108.6097 108.9017 110.6357 115.5015 115.7488 118.7189 119.5044
   120.5758 122.0737 122.3097 122.5802 126.9248 129.5245 130.1118 131.1150
   133.0387 133.7108 134.0106 134.7457 135.9232 137.3328 138.5524 139.1018
   141.6057 141.9780 145.1384 146.9886 147.5522 148.3166 151.0938 152.0830
   154.7236 154.7253 155.0620 157.0347 157.0559 159.4774 161.3431 161.7641
   162.5128 165.3930 166.9871 168.2722 170.2293 172.5844 173.7074 174.1551
   176.9872 178.0289 179.5730 180.0250

          k =-0.7078 0.3543-0.3543 (   883 PWs)   bands (ev):

   -39.3518 -18.7245  -1.5246  -1.0000   0.0760  11.9060  15.5660  19.1706
    19.1743  28.5976  28.6395  28.7202  36.5255  36.6305  39.6493  42.5509
    46.4713  47.6644  48.9162  52.3015  52.7491  55.1174  57.8348  64.1064
    64.2928  65.1751  66.9785  67.8711  71.3456  72.2108  73.1436  76.1584
    78.4099  80.8471  82.2881  83.3188  85.2478  85.4418  88.7570  92.3776
    94.0661  97.2462  98.1139  98.6212 101.4086 104.3831 104.9328 105.5626
   105.7058 106.7795 108.2061 109.4287 112.7765 116.0396 116.3321 119.0043
   119.4074 119.6089 121.5838 124.1080 124.3269 127.6892 129.0177 132.4528
   133.1719 133.4425 136.1427 136.3997 137.6156 138.1722 138.5755 141.7042
   141.9782 142.2799 143.7918 146.3767 150.0440 150.6613 151.7449 153.8948
   155.1469 155.4717 157.9373 159.4869 161.0284 162.1196 162.3739 163.2297
   163.6585 163.9474 164.0827 166.4098 171.3634 172.1046 173.6985 176.2271
   176.8589 177.2864 179.6180 180.5291

          k =-0.0007 0.0007 0.3528 (   881 PWs)   bands (ev):

   -39.3725 -18.8745  -1.0970  -0.1884  -0.1884  11.2498  18.5703  19.4605
    20.2749  20.2751  32.5877  32.5879  33.3432  34.3821  37.0075  42.8002
    43.0058  43.0080  49.8660  52.4109  55.3421  55.3424  64.0471  66.1570
    66.9862  66.9871  67.4679  73.1835  73.1841  73.3998  73.4746  80.9272
    84.0418  84.0969  84.1003  85.4185  85.4918  85.5082  88.5667  88.7173
    89.8468  89.8510  90.8685  90.9441  97.2424  97.2426 100.5403 102.8639
   106.2102 108.1375 108.3328 108.3366 109.4153 112.7331 114.1437 114.1437
   122.7549 123.5366 123.5374 124.4743 124.4747 127.0515 128.4128 128.4491
   134.9608 135.2556 135.2567 138.3147 139.2363 140.4785 140.4792 141.9286
   144.0324 144.6747 144.6777 145.9312 150.6838 150.6846 154.1198 155.9420
   156.5404 157.6145 157.6208 158.4676 162.1472 166.4799 166.4808 168.7709
   171.4458 172.8281 175.0862 175.0877 177.0601 177.0661 177.2140 177.3587
   177.6869 178.1827 178.1842 178.3503

          k =-0.1775 0.1775 0.1761 (   896 PWs)   bands (ev):

   -39.3827 -18.9699  -1.0433   0.1923   0.1945  10.2080  17.6879  20.2361
    20.2381  26.6414  27.2034  27.2337  34.7909  34.7972  36.5743  39.7092
    45.3655  45.3985  47.9669  53.5036  53.5279  62.0023  66.1591  66.1681
    66.7424  67.6340  67.6446  70.2309  74.9085  76.3192  76.3316  78.6244
    81.3408  81.3452  82.8843  83.9740  84.6548  84.6882  89.2262  89.2409
    92.1657  92.1687  92.6528  94.6678  94.7353  94.7682 102.4785 104.7769
   104.8002 108.9249 109.3957 109.3976 110.3489 110.3757 111.3563 113.8491
   116.2406 116.3214 116.8044 120.5283 120.5575 120.5945 129.0730 129.0898
   130.0946 135.8145 138.2140 138.2481 142.7451 145.9531 146.0072 147.7194
   147.7524 150.0562 150.3719 150.3766 152.2109 155.5187 155.5558 159.1310
   159.2372 159.2594 161.8459 162.6564 163.8023 163.8812 166.9371 168.2376
   168.3093 169.0042 170.1716 170.2745 171.8457 174.7563 174.8132 175.0043
   176.4774 178.2614 178.2821 179.4526

          k =-0.3543 0.3543-0.0007 (   883 PWs)   bands (ev):

   -39.3515 -18.7223  -1.5275  -1.0098   0.0728  11.9225  15.5522  19.1644
    19.1684  28.6338  28.6711  28.6852  36.5332  36.6182  39.6915  42.5657
    46.5573  47.6455  48.9427  52.3529  52.7130  55.0693  57.7895  64.0635
    64.2819  65.0677  66.9139  67.8968  71.2498  72.1772  73.1325  76.1414
    78.3986  80.8868  82.2549  83.2899  85.2791  85.4960  88.8558  92.4148
    94.1098  97.2804  98.1520  98.6081 101.3682 104.4152 104.9600 105.6114
   105.7795 106.8185 108.2469 109.3927 112.8045 116.1320 116.3055 119.1128
   119.4836 119.5155 121.4814 123.9925 124.3676 127.7065 128.9136 132.4098
   133.3239 133.3485 136.1433 136.5649 137.5231 138.1587 138.7566 141.6672
   141.8699 142.3355 143.9275 146.3206 150.0083 150.6212 151.7037 153.8266
   155.1181 155.4080 157.9023 159.4493 160.8969 162.0602 162.3184 163.1551
   163.5760 163.9211 163.9343 166.3875 171.4011 172.2299 173.7357 176.2518
   176.9420 177.1657 179.5279 180.4591

          k =-0.5310 0.5310-0.1775 (   888 PWs)   bands (ev):

   -39.3427 -18.6189  -2.0358  -0.8373  -0.3060  12.7777  15.6050  18.4652
    19.2802  23.6979  32.5468  33.2582  36.3626  37.8621  38.0437  42.9800
    45.1815  49.0894  50.1511  51.7215  54.7374  55.9830  56.3548  58.8858
    61.2914  62.0980  67.1759  67.5501  69.7378  72.1497  75.1357  75.2934
    76.0133  80.9987  83.0342  84.3010  85.7659  89.1600  89.5544  89.8133
    94.8665  95.8862  98.3893 101.3504 102.2978 103.7077 105.5945 106.0350
   107.1382 108.5813 108.8121 110.6890 115.6333 115.7655 118.7072 119.5516
   120.6283 122.1567 122.4326 122.5371 127.0220 129.3774 130.0832 131.1114
   133.0546 133.7969 133.8129 134.6784 136.0612 137.3265 138.5595 138.9796
   141.4559 142.0626 145.2592 146.9626 147.5275 148.3601 150.8968 152.0088
   154.7100 154.8895 155.0224 156.9568 157.0544 159.5240 161.4337 161.7945
   162.6794 165.6119 167.0265 168.2835 170.1764 172.4632 173.8637 174.2801
   177.0890 178.0071 179.5930 180.0104

          k = 0.1761 0.1775 0.5296 (   888 PWs)   bands (ev):

   -39.3427 -18.6191  -2.0354  -0.8378  -0.3044  12.7719  15.6031  18.4680
    19.2765  23.7206  32.5347  33.2450  36.3595  37.8573  38.0317  43.0017
    45.1788  49.1129  50.1670  51.7201  54.7257  55.9797  56.3886  58.8756
    61.2946  62.0592  67.1898  67.5228  69.7536  72.1393  75.1310  75.2723
    76.0038  81.0023  83.0461  84.3177  85.7731  89.1662  89.5408  89.8079
    94.8217  95.8995  98.4530 101.4043 102.2793 103.6918 105.6533 106.0228
   107.1315 108.5876 108.8311 110.6685 115.5899 115.7679 118.7212 119.4985
   120.6073 122.1347 122.4006 122.5426 126.9672 129.4302 130.0911 131.1238
   133.0656 133.7678 133.8734 134.6951 136.0120 137.3275 138.6031 138.9805
   141.4663 142.0367 145.2269 147.0011 147.5455 148.3494 150.9338 152.0862
   154.7155 154.7969 155.0410 156.9513 157.0943 159.4942 161.4161 161.8225
   162.6166 165.5235 167.0064 168.2844 170.2132 172.5391 173.8224 174.2661
   177.0918 178.0422 179.5854 180.0276

          k =-0.0007 0.3543 0.3528 (   883 PWs)   bands (ev):

   -39.3517 -18.7234  -1.5261  -1.0049   0.0744  11.9143  15.5591  19.1674
    19.1714  28.5993  28.6718  28.7027  36.5292  36.6245  39.6704  42.5583
    46.5142  47.6549  48.9292  52.3274  52.7310  55.0933  57.8122  64.0849
    64.2869  65.1211  66.9466  67.8840  71.2977  72.1939  73.1380  76.1501
    78.4044  80.8669  82.2674  83.3083  85.2628  85.4695  88.8065  92.3960
    94.0879  97.2632  98.1331  98.6145 101.3889 104.3976 104.9454 105.5978
   105.7314 106.8004 108.2269 109.4113 112.7910 116.0861 116.3184 119.0480
   119.4720 119.5462 121.5323 124.0506 124.3476 127.6972 128.9657 132.4309
   133.2515 133.3926 136.1429 136.4817 137.5677 138.1673 138.6666 141.6744
   141.9360 142.3071 143.8590 146.3487 150.0237 150.6411 151.7267 153.8598
   155.1329 155.4400 157.9194 159.4679 160.9620 162.0908 162.3467 163.1944
   163.6107 163.9441 164.0021 166.3997 171.3796 172.1674 173.7178 176.2415
   176.9000 177.2265 179.5731 180.4938

          k =-0.1775 0.5310 0.1761 (   888 PWs)   bands (ev):

   -39.3426 -18.6177  -2.0376  -0.8434  -0.3060  12.7866  15.5957  18.4640
    19.2768  23.7125  32.5390  33.2595  36.3426  37.9002  38.0255  43.0318
    45.1765  49.1418  50.1660  51.7407  54.7295  55.9408  56.3501  58.8799
    61.2395  62.0442  67.1522  67.5229  69.7397  72.1219  75.1378  75.2724
    75.9991  80.9756  83.0585  84.2966  85.7816  89.1228  89.5911  89.8704
    94.8855  95.9122  98.4322 101.3958 102.3142 103.7436 105.6577 106.0278
   107.1358 108.6031 108.8807 110.6562 115.5438 115.7470 118.7066 119.5566
   120.5952 122.0890 122.3406 122.5836 126.9800 129.4731 130.1009 131.1022
   133.0253 133.7528 133.9347 134.7318 135.9736 137.3325 138.5098 139.1005
   141.5960 142.0054 145.1702 146.9501 147.5342 148.3255 151.0568 152.0062
   154.7368 154.8174 155.0261 156.9533 157.1031 159.5070 161.3470 161.7483
   162.5755 165.4831 166.9991 168.2773 170.1920 172.5087 173.7529 174.1669
   176.9834 177.9936 179.5784 180.0064

          k =-0.3543 0.7078-0.0007 (   892 PWs)   bands (ev):

   -39.3339 -18.5096  -1.7546  -1.7483  -0.4693  14.8205  14.8238  17.1596
    18.9834  27.0496  27.0955  33.6009  37.5946  41.6643  41.6720  42.2489
    44.8143  50.1945  51.2092  51.2321  52.2825  55.6758  58.6492  58.6496
    62.0913  62.1490  62.2897  62.6708  67.8605  67.8614  68.6709  75.5893
    75.8256  83.0051  83.0359  86.7676  91.1237  93.6343  93.6818  94.7975
    96.7928  96.8328  98.0337  98.8881  99.8709 103.1098 103.1241 104.7046
   108.7865 109.5657 112.6955 112.7731 112.7773 114.2795 116.5397 116.6618
   122.7540 123.0645 123.0877 126.6171 129.8508 129.8688 130.4151 131.2358
   131.2999 131.5991 132.1218 133.2813 134.6517 136.9528 136.9686 140.1586
   143.5302 145.6618 145.7633 146.5371 151.9963 152.0442 152.5414 153.2384
   153.3377 153.3923 153.7661 153.9743 155.9740 161.0658 161.1044 163.6987
   164.9656 166.3700 166.4166 166.9032 166.9520 167.4466 168.0320 168.5935
   172.0697 172.1244 172.2514 172.3146

          k = 0.3528 0.3543 0.7064 (   883 PWs)   bands (ev):

   -39.3517 -18.7234  -1.5261  -1.0049   0.0744  11.9143  15.5591  19.1674
    19.1714  28.5993  28.6718  28.7027  36.5292  36.6245  39.6704  42.5583
    46.5142  47.6549  48.9292  52.3274  52.7310  55.0933  57.8122  64.0849
    64.2869  65.1211  66.9466  67.8840  71.2977  72.1939  73.1380  76.1501
    78.4044  80.8669  82.2674  83.3083  85.2628  85.4695  88.8065  92.3960
    94.0879  97.2632  98.1331  98.6145 101.3889 104.3976 104.9454 105.5978
   105.7314 106.8004 108.2269 109.4113 112.7910 116.0861 116.3184 119.0480
   119.4720 119.5462 121.5323 124.0506 124.3476 127.6972 128.9657 132.4309
   133.2515 133.3926 136.1429 136.4817 137.5677 138.1673 138.6666 141.6744
   141.9360 142.3071 143.8590 146.3487 150.0237 150.6411 151.7267 153.8598
   155.1329 155.4400 157.9194 159.4679 160.9620 162.0908 162.3467 163.1944
   163.6107 163.9441 164.0021 166.3997 171.3796 172.1674 173.7178 176.2415
   176.9000 177.2265 179.5731 180.4938

          k = 0.1761 0.5310 0.5296 (   888 PWs)   bands (ev):

   -39.3426 -18.6177  -2.0376  -0.8434  -0.3060  12.7866  15.5957  18.4640
    19.2768  23.7125  32.5390  33.2595  36.3426  37.9002  38.0255  43.0318
    45.1765  49.1418  50.1660  51.7407  54.7295  55.9408  56.3501  58.8799
    61.2395  62.0442  67.1522  67.5229  69.7397  72.1219  75.1378  75.2724
    75.9991  80.9756  83.0585  84.2966  85.7816  89.1228  89.5911  89.8704
    94.8855  95.9122  98.4322 101.3958 102.3142 103.7436 105.6577 106.0278
   107.1358 108.6031 108.8807 110.6562 115.5438 115.7470 118.7066 119.5566
   120.5952 122.0890 122.3406 122.5836 126.9800 129.4731 130.1009 131.1022
   133.0253 133.7528 133.9347 134.7318 135.9736 137.3325 138.5098 139.1005
   141.5960 142.0054 145.1702 146.9501 147.5342 148.3255 151.0568 152.0062
   154.7368 154.8174 155.0261 156.9533 157.1031 159.5070 161.3470 161.7483
   162.5755 165.4831 166.9991 168.2773 170.1920 172.5087 173.7529 174.1669
   176.9834 177.9936 179.5784 180.0064

          k =-0.0007 0.7078 0.3528 (   892 PWs)   bands (ev):

   -39.3339 -18.5096  -1.7546  -1.7483  -0.4693  14.8205  14.8238  17.1596
    18.9834  27.0496  27.0955  33.6009  37.5946  41.6643  41.6720  42.2489
    44.8143  50.1945  51.2092  51.2321  52.2825  55.6758  58.6492  58.6496
    62.0913  62.1490  62.2897  62.6708  67.8605  67.8614  68.6709  75.5893
    75.8256  83.0051  83.0359  86.7676  91.1237  93.6343  93.6818  94.7975
    96.7928  96.8328  98.0337  98.8881  99.8709 103.1098 103.1241 104.7046
   108.7865 109.5657 112.6955 112.7731 112.7773 114.2795 116.5397 116.6618
   122.7540 123.0645 123.0877 126.6171 129.8508 129.8688 130.4151 131.2358
   131.2999 131.5991 132.1218 133.2813 134.6517 136.9528 136.9686 140.1586
   143.5302 145.6618 145.7633 146.5371 151.9963 152.0442 152.5414 153.2384
   153.3377 153.3923 153.7661 153.9743 155.9740 161.0658 161.1044 163.6987
   164.9656 166.3701 166.4166 166.9032 166.9520 167.4466 168.0320 168.5935
   172.0697 172.1244 172.2514 172.3146

          k =-0.1775 0.8846 0.1761 (   888 PWs)   bands (ev):

   -39.3427 -18.6191  -2.0354  -0.8378  -0.3044  12.7719  15.6031  18.4680
    19.2765  23.7206  32.5347  33.2450  36.3595  37.8573  38.0317  43.0017
    45.1788  49.1129  50.1670  51.7201  54.7257  55.9797  56.3886  58.8756
    61.2946  62.0592  67.1898  67.5228  69.7536  72.1393  75.1310  75.2723
    76.0038  81.0023  83.0461  84.3177  85.7731  89.1662  89.5408  89.8079
    94.8217  95.8995  98.4530 101.4043 102.2793 103.6918 105.6533 106.0228
   107.1315 108.5876 108.8311 110.6685 115.5899 115.7679 118.7212 119.4985
   120.6073 122.1347 122.4006 122.5426 126.9672 129.4302 130.0911 131.1238
   133.0656 133.7678 133.8734 134.6951 136.0120 137.3275 138.6031 138.9805
   141.4663 142.0367 145.2269 147.0011 147.5455 148.3494 150.9338 152.0862
   154.7155 154.7969 155.0410 156.9513 157.0943 159.4942 161.4161 161.8225
   162.6166 165.5235 167.0064 168.2844 170.2132 172.5391 173.8224 174.2661
   177.0918 178.0422 179.5854 180.0276

          k =-0.3543-0.3528 0.3528 (   886 PWs)   bands (ev):

   -39.3507 -18.7498  -2.1750   0.0920   0.0920  10.6281  16.4703  18.6202
    18.6202  30.0609  30.5572  30.5576  33.1297  36.6440  36.6441  44.6603
    44.6604  46.7099  52.1301  52.3421  52.3423  54.7449  60.6691  60.6693
    65.0336  67.8445  70.1397  70.1400  71.1809  71.1819  74.6541  74.7082
    74.7106  74.8988  76.1457  86.2172  86.2176  89.6908  90.2164  90.2203
    91.4359  97.0082  98.6082  98.6084 102.4497 102.8216 102.8216 107.6403
   108.3372 108.3390 109.5531 109.5553 116.2556 119.3621 119.3630 121.2724
   122.8849 122.8852 123.9610 126.5365 126.5367 127.5390 127.5396 128.2319
   128.7303 128.7361 128.8659 128.8767 130.0362 130.1905 139.7665 141.9624
   142.4365 142.4365 147.6883 147.6972 148.0837 148.0924 148.8301 158.2697
   158.2707 159.0118 159.2459 161.7851 161.7900 162.6195 164.1147 165.1306
   165.1397 166.0191 169.3946 172.1348 172.1356 174.8245 174.9185 174.9273
   178.4658 178.4670 179.1450 180.1006

          k =-0.5310-0.1761 0.1761 (   888 PWs)   bands (ev):

   -39.3426 -18.6175  -2.0380  -0.8429  -0.3076  12.7924  15.5976  18.4611
    19.2805  23.6899  32.5511  33.2729  36.3458  37.9050  38.0375  43.0101
    45.1792  49.1186  50.1500  51.7417  54.7415  55.9442  56.3162  58.8900
    61.2364  62.0830  67.1378  67.5506  69.7242  72.1322  75.1430  75.2932
    76.0087  80.9720  83.0468  84.2796  85.7740  89.1177  89.6039  89.8761
    94.9303  95.8991  98.3683 101.3420 102.3326 103.7599 105.5982 106.0396
   107.1449 108.5969 108.8602 110.6767 115.5872 115.7444 118.6942 119.6099
   120.6145 122.1159 122.3663 122.5797 127.0346 129.4215 130.0917 131.0893
   133.0127 133.7991 133.8581 134.7153 136.0233 137.3320 138.4661 139.0996
   141.5856 142.0320 145.2017 146.9101 147.5162 148.3378 151.0198 151.9288
   154.7432 154.9097 154.9957 156.9535 157.0683 159.5375 161.3632 161.7197
   162.6399 165.5717 167.0189 168.2762 170.1554 172.4327 173.7914 174.1841
   176.9799 177.9578 179.5868 179.9881

          k =-0.7078 0.0007-0.0007 (   894 PWs)   bands (ev):

   -39.3345 -18.4817  -2.6786  -0.6730  -0.6730  14.5610  16.3186  17.2356
    19.8615  19.8616  32.9442  37.9200  39.3727  41.0665  41.0675  43.2836
    43.5669  43.5670  48.6399  48.6400  52.7037  53.1215  57.6174  57.6175
    59.9617  60.4814  69.6667  71.4689  73.4030  73.4033  75.2824  77.8390
    77.8461  78.3255  78.6584  79.2380  85.2879  87.5876  87.5915  88.1800
    88.6916  98.6937  98.6937 100.3950 107.6264 107.6267 108.9886 110.9297
   112.4030 112.4039 112.7886 113.5907 115.6884 115.6891 117.9209 119.1473
   121.0326 122.6941 124.0178 124.0208 124.5149 124.5197 125.3041 125.4234
   128.1815 128.1816 131.7300 133.4347 139.6174 144.6301 146.0891 146.0893
   146.2320 147.0160 147.3042 147.3058 147.7488 148.0756 151.0783 151.4892
   151.5223 151.7214 151.7236 151.7295 154.3938 155.9047 157.9158 157.9158
   158.0557 158.0558 162.5824 162.7291 168.4106 168.4113 174.2348 175.0404
   179.3165 181.5723 182.4493 182.4503

          k =-0.8846 0.1775-0.1775 (   888 PWs)   bands (ev):

   -39.3427 -18.6192  -2.0350  -0.8382  -0.3028  12.7661  15.6013  18.4709
    19.2728  23.7431  32.5240  33.2303  36.3565  37.8527  38.0195  43.0234
    45.1758  49.1363  50.1830  51.7186  54.7140  55.9778  56.4212  58.8654
    61.2978  62.0203  67.2070  67.4929  69.7686  72.1290  75.1364  75.2447
    75.9907  81.0085  83.0566  84.3327  85.7800  89.1700  89.5301  89.8026
    94.7766  95.9128  98.5166 101.4587 102.2622 103.6755 105.7096 106.0116
   107.1246 108.5942 108.8507 110.6480 115.5478 115.7693 118.7351 119.4463
   120.5861 122.1210 122.3757 122.5318 126.9118 129.4830 130.1006 131.1361
   133.0774 133.7271 133.9490 134.7090 135.9621 137.3282 138.6457 138.9819
   141.4761 142.0100 145.1942 147.0378 147.5635 148.3423 150.9708 152.1630
   154.7035 154.7132 155.0670 157.0384 157.0411 159.4655 161.4100 161.8385
   162.5553 165.4338 166.9941 168.2790 170.2509 172.6147 173.7747 174.2567
   177.0951 178.0766 179.5804 180.0457

          k =-0.1775-0.1761 0.5296 (   888 PWs)   bands (ev):

   -39.3427 -18.6191  -2.0354  -0.8378  -0.3044  12.7719  15.6031  18.4680
    19.2765  23.7206  32.5347  33.2450  36.3595  37.8573  38.0317  43.0017
    45.1788  49.1129  50.1670  51.7201  54.7257  55.9797  56.3886  58.8756
    61.2946  62.0592  67.1898  67.5228  69.7536  72.1393  75.1310  75.2723
    76.0038  81.0023  83.0461  84.3177  85.7731  89.1662  89.5408  89.8079
    94.8217  95.8995  98.4530 101.4043 102.2793 103.6918 105.6533 106.0228
   107.1315 108.5876 108.8311 110.6685 115.5899 115.7679 118.7212 119.4985
   120.6073 122.1347 122.4006 122.5426 126.9672 129.4302 130.0911 131.1238
   133.0656 133.7678 133.8734 134.6951 136.0120 137.3275 138.6031 138.9805
   141.4663 142.0367 145.2269 147.0011 147.5455 148.3494 150.9338 152.0862
   154.7155 154.7969 155.0410 156.9513 157.0943 159.4942 161.4161 161.8225
   162.6166 165.5235 167.0064 168.2844 170.2132 172.5391 173.8224 174.2661
   177.0918 178.0422 179.5854 180.0276

          k =-0.3543 0.0007 0.3528 (   883 PWs)   bands (ev):

   -39.3517 -18.7234  -1.5261  -1.0049   0.0744  11.9143  15.5591  19.1674
    19.1714  28.5993  28.6718  28.7027  36.5292  36.6245  39.6704  42.5583
    46.5142  47.6549  48.9292  52.3274  52.7310  55.0933  57.8122  64.0849
    64.2869  65.1211  66.9466  67.8840  71.2977  72.1939  73.1380  76.1501
    78.4044  80.8669  82.2674  83.3083  85.2628  85.4695  88.8065  92.3960
    94.0879  97.2632  98.1331  98.6145 101.3889 104.3976 104.9454 105.5978
   105.7314 106.8004 108.2269 109.4113 112.7910 116.0861 116.3184 119.0480
   119.4720 119.5462 121.5323 124.0506 124.3476 127.6972 128.9657 132.4309
   133.2515 133.3926 136.1429 136.4817 137.5677 138.1673 138.6666 141.6744
   141.9360 142.3071 143.8590 146.3487 150.0237 150.6411 151.7267 153.8598
   155.1329 155.4400 157.9194 159.4679 160.9620 162.0908 162.3467 163.1944
   163.6107 163.9441 164.0021 166.3997 171.3796 172.1674 173.7178 176.2415
   176.9000 177.2265 179.5731 180.4938

          k =-0.5310 0.1775 0.1761 (   888 PWs)   bands (ev):

   -39.3426 -18.6177  -2.0376  -0.8434  -0.3060  12.7866  15.5957  18.4640
    19.2768  23.7125  32.5390  33.2595  36.3426  37.9002  38.0255  43.0318
    45.1765  49.1418  50.1660  51.7407  54.7295  55.9408  56.3501  58.8799
    61.2395  62.0442  67.1522  67.5229  69.7397  72.1219  75.1378  75.2724
    75.9991  80.9756  83.0585  84.2966  85.7816  89.1228  89.5911  89.8704
    94.8855  95.9122  98.4322 101.3958 102.3142 103.7436 105.6577 106.0278
   107.1358 108.6031 108.8807 110.6562 115.5438 115.7470 118.7066 119.5566
   120.5952 122.0890 122.3406 122.5836 126.9800 129.4731 130.1009 131.1022
   133.0253 133.7528 133.9347 134.7318 135.9736 137.3325 138.5098 139.1005
   141.5960 142.0054 145.1702 146.9501 147.5342 148.3255 151.0568 152.0062
   154.7368 154.8174 155.0261 156.9533 157.1031 159.5070 161.3470 161.7483
   162.5755 165.4831 166.9991 168.2773 170.1920 172.5087 173.7529 174.1669
   176.9834 177.9936 179.5784 180.0064

          k =-0.7078 0.3543-0.0007 (   892 PWs)   bands (ev):

   -39.3339 -18.5096  -1.7546  -1.7483  -0.4693  14.8205  14.8238  17.1596
    18.9834  27.0496  27.0955  33.6009  37.5946  41.6643  41.6720  42.2489
    44.8143  50.1945  51.2092  51.2321  52.2825  55.6758  58.6492  58.6496
    62.0913  62.1490  62.2897  62.6708  67.8605  67.8614  68.6709  75.5893
    75.8256  83.0051  83.0359  86.7676  91.1237  93.6343  93.6818  94.7975
    96.7928  96.8328  98.0337  98.8881  99.8709 103.1098 103.1241 104.7046
   108.7865 109.5657 112.6955 112.7731 112.7773 114.2795 116.5397 116.6618
   122.7540 123.0645 123.0877 126.6171 129.8508 129.8688 130.4151 131.2358
   131.2999 131.5991 132.1218 133.2813 134.6517 136.9528 136.9686 140.1586
   143.5302 145.6618 145.7633 146.5371 151.9963 152.0442 152.5414 153.2384
   153.3377 153.3923 153.7661 153.9743 155.9740 161.0658 161.1044 163.6987
   164.9656 166.3700 166.4166 166.9032 166.9520 167.4466 168.0320 168.5935
   172.0697 172.1244 172.2514 172.3146

          k =-0.0007 0.0007 0.7064 (   894 PWs)   bands (ev):

   -39.3345 -18.4817  -2.6786  -0.6730  -0.6730  14.5610  16.3186  17.2356
    19.8615  19.8616  32.9442  37.9200  39.3727  41.0665  41.0675  43.2836
    43.5669  43.5670  48.6399  48.6400  52.7037  53.1215  57.6174  57.6175
    59.9617  60.4814  69.6667  71.4689  73.4030  73.4033  75.2824  77.8390
    77.8461  78.3255  78.6584  79.2380  85.2879  87.5876  87.5915  88.1800
    88.6916  98.6937  98.6937 100.3950 107.6264 107.6267 108.9886 110.9297
   112.4030 112.4039 112.7886 113.5907 115.6884 115.6891 117.9209 119.1473
   121.0326 122.6941 124.0178 124.0208 124.5149 124.5197 125.3041 125.4234
   128.1815 128.1816 131.7300 133.4347 139.6174 144.6301 146.0891 146.0893
   146.2320 147.0160 147.3042 147.3058 147.7488 148.0756 151.0783 151.4892
   151.5223 151.7214 151.7236 151.7295 154.3938 155.9047 157.9158 157.9158
   158.0557 158.0558 162.5824 162.7291 168.4106 168.4113 174.2348 175.0404
   179.3165 181.5723 182.4493 182.4503

          k =-0.1775 0.1775 0.5296 (   888 PWs)   bands (ev):

   -39.3427 -18.6192  -2.0350  -0.8382  -0.3028  12.7661  15.6013  18.4709
    19.2728  23.7431  32.5240  33.2303  36.3565  37.8527  38.0195  43.0234
    45.1758  49.1363  50.1830  51.7186  54.7140  55.9778  56.4212  58.8654
    61.2978  62.0203  67.2070  67.4929  69.7686  72.1290  75.1364  75.2447
    75.9907  81.0085  83.0566  84.3327  85.7800  89.1700  89.5301  89.8026
    94.7766  95.9128  98.5166 101.4587 102.2622 103.6755 105.7096 106.0116
   107.1246 108.5942 108.8507 110.6480 115.5478 115.7693 118.7351 119.4463
   120.5861 122.1210 122.3757 122.5318 126.9118 129.4830 130.1006 131.1361
   133.0774 133.7271 133.9490 134.7090 135.9621 137.3282 138.6457 138.9819
   141.4761 142.0100 145.1942 147.0378 147.5635 148.3423 150.9708 152.1630
   154.7035 154.7132 155.0670 157.0384 157.0411 159.4655 161.4100 161.8385
   162.5553 165.4338 166.9941 168.2790 170.2509 172.6147 173.7747 174.2567
   177.0951 178.0766 179.5804 180.0457

          k =-0.3543 0.3543 0.3528 (   886 PWs)   bands (ev):

   -39.3507 -18.7498  -2.1750   0.0920   0.0920  10.6281  16.4703  18.6202
    18.6202  30.0609  30.5572  30.5576  33.1297  36.6440  36.6441  44.6603
    44.6604  46.7099  52.1301  52.3421  52.3423  54.7449  60.6691  60.6693
    65.0336  67.8445  70.1397  70.1400  71.1809  71.1819  74.6541  74.7082
    74.7106  74.8988  76.1457  86.2172  86.2176  89.6908  90.2164  90.2203
    91.4359  97.0082  98.6082  98.6084 102.4497 102.8216 102.8216 107.6403
   108.3372 108.3390 109.5531 109.5553 116.2556 119.3621 119.3630 121.2724
   122.8849 122.8852 123.9610 126.5365 126.5367 127.5390 127.5396 128.2319
   128.7303 128.7361 128.8659 128.8767 130.0362 130.1905 139.7665 141.9624
   142.4365 142.4365 147.6883 147.6972 148.0837 148.0924 148.8301 158.2697
   158.2707 159.0118 159.2459 161.7851 161.7900 162.6195 164.1147 165.1306
   165.1397 166.0191 169.3946 172.1348 172.1356 174.8245 174.9185 174.9273
   178.4658 178.4670 179.1450 180.1006

          k =-0.5310 0.5310 0.1761 (   888 PWs)   bands (ev):

   -39.3426 -18.6175  -2.0380  -0.8429  -0.3076  12.7924  15.5976  18.4611
    19.2805  23.6899  32.5511  33.2729  36.3458  37.9050  38.0375  43.0101
    45.1792  49.1186  50.1500  51.7417  54.7415  55.9442  56.3162  58.8900
    61.2364  62.0830  67.1378  67.5506  69.7242  72.1322  75.1430  75.2932
    76.0087  80.9720  83.0468  84.2796  85.7740  89.1177  89.6039  89.8761
    94.9303  95.8991  98.3683 101.3420 102.3326 103.7599 105.5982 106.0396
   107.1449 108.5969 108.8602 110.6767 115.5872 115.7444 118.6942 119.6099
   120.6145 122.1159 122.3663 122.5797 127.0346 129.4215 130.0917 131.0893
   133.0127 133.7991 133.8581 134.7153 136.0233 137.3320 138.4661 139.0996
   141.5856 142.0320 145.2017 146.9101 147.5162 148.3378 151.0198 151.9288
   154.7432 154.9097 154.9957 156.9535 157.0683 159.5375 161.3632 161.7197
   162.6399 165.5717 167.0189 168.2762 170.1554 172.4327 173.7914 174.1841
   176.9799 177.9578 179.5868 179.9881

          k = 0.1761 0.1775 0.8832 (   888 PWs)   bands (ev):

   -39.3426 -18.6177  -2.0376  -0.8434  -0.3060  12.7866  15.5957  18.4640
    19.2768  23.7125  32.5390  33.2595  36.3426  37.9002  38.0255  43.0318
    45.1765  49.1418  50.1660  51.7407  54.7295  55.9408  56.3501  58.8799
    61.2395  62.0442  67.1522  67.5229  69.7397  72.1219  75.1378  75.2724
    75.9991  80.9756  83.0585  84.2966  85.7816  89.1228  89.5911  89.8704
    94.8855  95.9122  98.4322 101.3958 102.3142 103.7436 105.6577 106.0278
   107.1358 108.6031 108.8807 110.6562 115.5438 115.7470 118.7066 119.5566
   120.5952 122.0890 122.3406 122.5836 126.9800 129.4731 130.1009 131.1022
   133.0253 133.7528 133.9347 134.7318 135.9736 137.3325 138.5098 139.1005
   141.5960 142.0054 145.1702 146.9501 147.5342 148.3255 151.0568 152.0062
   154.7368 154.8174 155.0261 156.9533 157.1031 159.5070 161.3470 161.7483
   162.5755 165.4831 166.9991 168.2773 170.1920 172.5087 173.7529 174.1669
   176.9834 177.9936 179.5784 180.0064

          k =-0.0007 0.3543 0.7064 (   892 PWs)   bands (ev):

   -39.3339 -18.5096  -1.7546  -1.7483  -0.4693  14.8205  14.8238  17.1596
    18.9834  27.0496  27.0955  33.6009  37.5946  41.6643  41.6720  42.2489
    44.8143  50.1945  51.2092  51.2321  52.2825  55.6758  58.6492  58.6496
    62.0913  62.1490  62.2897  62.6708  67.8605  67.8614  68.6709  75.5893
    75.8256  83.0051  83.0359  86.7676  91.1237  93.6343  93.6818  94.7975
    96.7928  96.8328  98.0337  98.8881  99.8709 103.1098 103.1241 104.7046
   108.7865 109.5657 112.6955 112.7731 112.7773 114.2795 116.5397 116.6618
   122.7540 123.0645 123.0877 126.6171 129.8508 129.8688 130.4151 131.2358
   131.2999 131.5991 132.1218 133.2813 134.6517 136.9528 136.9686 140.1586
   143.5302 145.6618 145.7633 146.5371 151.9963 152.0442 152.5414 153.2384
   153.3377 153.3923 153.7661 153.9743 155.9740 161.0658 161.1044 163.6987
   164.9656 166.3701 166.4166 166.9032 166.9520 167.4466 168.0320 168.5935
   172.0697 172.1244 172.2514 172.3146

          k =-0.1775 0.5310 0.5296 (   888 PWs)   bands (ev):

   -39.3427 -18.6191  -2.0354  -0.8378  -0.3044  12.7719  15.6031  18.4680
    19.2765  23.7206  32.5347  33.2450  36.3595  37.8573  38.0317  43.0017
    45.1788  49.1129  50.1670  51.7201  54.7257  55.9797  56.3886  58.8756
    61.2946  62.0592  67.1898  67.5228  69.7536  72.1393  75.1310  75.2723
    76.0038  81.0023  83.0461  84.3177  85.7731  89.1662  89.5408  89.8079
    94.8217  95.8995  98.4530 101.4043 102.2793 103.6918 105.6533 106.0228
   107.1315 108.5876 108.8311 110.6685 115.5899 115.7679 118.7212 119.4985
   120.6073 122.1347 122.4006 122.5426 126.9672 129.4302 130.0911 131.1238
   133.0656 133.7678 133.8734 134.6951 136.0120 137.3275 138.6031 138.9805
   141.4663 142.0367 145.2269 147.0011 147.5455 148.3494 150.9338 152.0862
   154.7155 154.7969 155.0410 156.9513 157.0943 159.4942 161.4161 161.8225
   162.6166 165.5235 167.0064 168.2844 170.2132 172.5391 173.8224 174.2661
   177.0918 178.0422 179.5854 180.0276

          k =-0.3543 0.7078 0.3528 (   883 PWs)   bands (ev):

   -39.3517 -18.7234  -1.5261  -1.0049   0.0744  11.9143  15.5591  19.1674
    19.1714  28.5993  28.6718  28.7027  36.5292  36.6245  39.6704  42.5583
    46.5142  47.6549  48.9292  52.3274  52.7310  55.0933  57.8122  64.0849
    64.2869  65.1211  66.9466  67.8840  71.2977  72.1939  73.1380  76.1501
    78.4044  80.8669  82.2674  83.3083  85.2628  85.4695  88.8065  92.3960
    94.0879  97.2632  98.1331  98.6145 101.3889 104.3976 104.9454 105.5978
   105.7314 106.8004 108.2269 109.4113 112.7910 116.0861 116.3184 119.0480
   119.4720 119.5462 121.5323 124.0506 124.3476 127.6972 128.9657 132.4309
   133.2515 133.3926 136.1429 136.4817 137.5677 138.1673 138.6666 141.6744
   141.9360 142.3071 143.8590 146.3487 150.0237 150.6411 151.7267 153.8598
   155.1329 155.4400 157.9194 159.4679 160.9620 162.0908 162.3467 163.1944
   163.6107 163.9441 164.0021 166.3997 171.3796 172.1674 173.7178 176.2415
   176.9000 177.2265 179.5731 180.4938

          k =-0.5310-0.5296 0.5296 (   896 PWs)   bands (ev):

   -39.3827 -18.9699  -1.0433   0.1923   0.1945  10.2080  17.6879  20.2361
    20.2381  26.6414  27.2034  27.2337  34.7909  34.7972  36.5743  39.7092
    45.3655  45.3985  47.9669  53.5036  53.5279  62.0023  66.1591  66.1681
    66.7424  67.6340  67.6446  70.2309  74.9085  76.3192  76.3316  78.6244
    81.3408  81.3452  82.8843  83.9740  84.6548  84.6882  89.2262  89.2409
    92.1657  92.1687  92.6528  94.6678  94.7353  94.7682 102.4785 104.7769
   104.8002 108.9249 109.3957 109.3976 110.3489 110.3757 111.3563 113.8491
   116.2406 116.3214 116.8044 120.5283 120.5575 120.5945 129.0730 129.0898
   130.0946 135.8145 138.2140 138.2481 142.7451 145.9531 146.0072 147.7194
   147.7524 150.0562 150.3719 150.3766 152.2109 155.5187 155.5558 159.1310
   159.2372 159.2594 161.8459 162.6564 163.8023 163.8812 166.9371 168.2376
   168.3093 169.0042 170.1716 170.2745 171.8457 174.7563 174.8132 175.0043
   176.4774 178.2614 178.2821 179.4526

          k =-0.7078-0.3528 0.3528 (   883 PWs)   bands (ev):

   -39.3515 -18.7223  -1.5275  -1.0098   0.0728  11.9225  15.5522  19.1644
    19.1684  28.6338  28.6711  28.6852  36.5332  36.6182  39.6915  42.5657
    46.5573  47.6455  48.9427  52.3529  52.7130  55.0693  57.7895  64.0635
    64.2819  65.0677  66.9139  67.8968  71.2498  72.1772  73.1325  76.1414
    78.3986  80.8868  82.2549  83.2899  85.2791  85.4960  88.8558  92.4148
    94.1098  97.2804  98.1520  98.6081 101.3682 104.4152 104.9600 105.6114
   105.7795 106.8185 108.2469 109.3927 112.8045 116.1320 116.3055 119.1128
   119.4836 119.5155 121.4814 123.9925 124.3676 127.7065 128.9136 132.4098
   133.3239 133.3485 136.1433 136.5649 137.5231 138.1587 138.7566 141.6672
   141.8699 142.3355 143.9275 146.3206 150.0083 150.6212 151.7037 153.8266
   155.1181 155.4080 157.9023 159.4493 160.8969 162.0602 162.3184 163.1551
   163.5760 163.9211 163.9343 166.3875 171.4011 172.2299 173.7357 176.2518
   176.9420 177.1657 179.5279 180.4591

          k =-0.8846-0.1761 0.1761 (   888 PWs)   bands (ev):

   -39.3427 -18.6189  -2.0358  -0.8373  -0.3060  12.7777  15.6050  18.4652
    19.2802  23.6979  32.5468  33.2582  36.3626  37.8621  38.0437  42.9800
    45.1815  49.0894  50.1511  51.7215  54.7374  55.9830  56.3548  58.8858
    61.2914  62.0980  67.1759  67.5501  69.7378  72.1497  75.1357  75.2934
    76.0133  80.9987  83.0342  84.3010  85.7659  89.1600  89.5544  89.8133
    94.8665  95.8862  98.3893 101.3504 102.2978 103.7077 105.5945 106.0350
   107.1382 108.5813 108.8121 110.6890 115.6333 115.7655 118.7072 119.5516
   120.6283 122.1567 122.4326 122.5371 127.0220 129.3774 130.0832 131.1114
   133.0546 133.7969 133.8129 134.6784 136.0612 137.3265 138.5595 138.9796
   141.4559 142.0626 145.2592 146.9626 147.5275 148.3601 150.8968 152.0088
   154.7100 154.8895 155.0224 156.9568 157.0544 159.5240 161.4337 161.7945
   162.6794 165.6119 167.0265 168.2835 170.1764 172.4632 173.8637 174.2801
   177.0890 178.0071 179.5930 180.0104

          k =-1.0614 0.0007-0.0007 (   881 PWs)   bands (ev):

   -39.3725 -18.8745  -1.0970  -0.1884  -0.1884  11.2498  18.5703  19.4605
    20.2749  20.2751  32.5877  32.5879  33.3432  34.3821  37.0075  42.8002
    43.0058  43.0080  49.8660  52.4109  55.3421  55.3424  64.0471  66.1570
    66.9862  66.9871  67.4679  73.1835  73.1841  73.3998  73.4746  80.9272
    84.0418  84.0969  84.1003  85.4185  85.4918  85.5082  88.5667  88.7173
    89.8468  89.8510  90.8685  90.9441  97.2424  97.2426 100.5403 102.8639
   106.2102 108.1375 108.3328 108.3366 109.4153 112.7331 114.1437 114.1437
   122.7549 123.5366 123.5374 124.4743 124.4747 127.0515 128.4128 128.4491
   134.9608 135.2556 135.2567 138.3147 139.2363 140.4785 140.4792 141.9286
   144.0324 144.6747 144.6777 145.9312 150.6838 150.6846 154.1198 155.9420
   156.5404 157.6145 157.6208 158.4676 162.1472 166.4799 166.4808 168.7709
   171.4458 172.8281 175.0862 175.0877 177.0601 177.0661 177.2140 177.3587
   177.6869 178.1827 178.1842 178.3503

          k =-0.3543-0.3528 0.7064 (   883 PWs)   bands (ev):

   -39.3517 -18.7234  -1.5261  -1.0049   0.0744  11.9143  15.5591  19.1674
    19.1714  28.5993  28.6718  28.7027  36.5292  36.6245  39.6704  42.5583
    46.5142  47.6549  48.9292  52.3274  52.7310  55.0933  57.8122  64.0849
    64.2869  65.1211  66.9466  67.8840  71.2977  72.1939  73.1380  76.1501
    78.4044  80.8669  82.2674  83.3083  85.2628  85.4695  88.8065  92.3960
    94.0879  97.2632  98.1331  98.6145 101.3889 104.3976 104.9454 105.5978
   105.7314 106.8004 108.2269 109.4113 112.7910 116.0861 116.3184 119.0480
   119.4720 119.5462 121.5323 124.0506 124.3476 127.6972 128.9657 132.4309
   133.2515 133.3926 136.1429 136.4817 137.5677 138.1673 138.6666 141.6744
   141.9360 142.3071 143.8590 146.3487 150.0237 150.6411 151.7267 153.8598
   155.1329 155.4400 157.9194 159.4679 160.9620 162.0908 162.3467 163.1944
   163.6107 163.9441 164.0021 166.3997 171.3796 172.1674 173.7178 176.2415
   176.9000 177.2265 179.5731 180.4938

          k =-0.5310-0.1761 0.5296 (   888 PWs)   bands (ev):

   -39.3426 -18.6177  -2.0376  -0.8434  -0.3060  12.7866  15.5957  18.4640
    19.2768  23.7125  32.5390  33.2595  36.3426  37.9002  38.0255  43.0318
    45.1765  49.1418  50.1660  51.7407  54.7295  55.9408  56.3501  58.8799
    61.2395  62.0442  67.1522  67.5229  69.7397  72.1219  75.1378  75.2724
    75.9991  80.9756  83.0585  84.2966  85.7816  89.1228  89.5911  89.8704
    94.8855  95.9122  98.4322 101.3958 102.3142 103.7436 105.6577 106.0278
   107.1358 108.6031 108.8807 110.6562 115.5438 115.7470 118.7066 119.5566
   120.5952 122.0890 122.3406 122.5836 126.9800 129.4731 130.1009 131.1022
   133.0253 133.7528 133.9347 134.7318 135.9736 137.3325 138.5098 139.1005
   141.5960 142.0054 145.1702 146.9501 147.5342 148.3255 151.0568 152.0062
   154.7368 154.8174 155.0261 156.9533 157.1031 159.5070 161.3470 161.7483
   162.5755 165.4831 166.9991 168.2773 170.1920 172.5087 173.7529 174.1669
   176.9834 177.9936 179.5784 180.0064

          k =-0.7078 0.0007 0.3528 (   892 PWs)   bands (ev):

   -39.3339 -18.5096  -1.7546  -1.7483  -0.4693  14.8205  14.8238  17.1596
    18.9834  27.0496  27.0955  33.6009  37.5946  41.6643  41.6720  42.2489
    44.8143  50.1945  51.2092  51.2321  52.2825  55.6758  58.6492  58.6496
    62.0913  62.1490  62.2897  62.6708  67.8605  67.8614  68.6709  75.5893
    75.8256  83.0051  83.0359  86.7676  91.1237  93.6343  93.6818  94.7975
    96.7928  96.8328  98.0337  98.8881  99.8709 103.1098 103.1241 104.7046
   108.7865 109.5657 112.6955 112.7731 112.7773 114.2795 116.5397 116.6618
   122.7540 123.0645 123.0877 126.6171 129.8508 129.8688 130.4151 131.2358
   131.2999 131.5991 132.1218 133.2813 134.6517 136.9528 136.9686 140.1586
   143.5302 145.6618 145.7633 146.5371 151.9963 152.0442 152.5414 153.2384
   153.3377 153.3923 153.7661 153.9743 155.9740 161.0658 161.1044 163.6987
   164.9656 166.3701 166.4166 166.9032 166.9520 167.4466 168.0320 168.5935
   172.0697 172.1244 172.2514 172.3146

          k =-0.8846 0.1775 0.1761 (   888 PWs)   bands (ev):

   -39.3427 -18.6191  -2.0354  -0.8378  -0.3044  12.7719  15.6031  18.4680
    19.2765  23.7206  32.5347  33.2450  36.3595  37.8573  38.0317  43.0017
    45.1788  49.1129  50.1670  51.7201  54.7257  55.9797  56.3886  58.8756
    61.2946  62.0592  67.1898  67.5228  69.7536  72.1393  75.1310  75.2723
    76.0038  81.0023  83.0461  84.3177  85.7731  89.1662  89.5408  89.8079
    94.8217  95.8995  98.4530 101.4043 102.2793 103.6918 105.6533 106.0228
   107.1315 108.5876 108.8311 110.6685 115.5899 115.7679 118.7212 119.4985
   120.6073 122.1347 122.4006 122.5426 126.9672 129.4302 130.0911 131.1238
   133.0656 133.7678 133.8734 134.6951 136.0120 137.3275 138.6031 138.9805
   141.4663 142.0367 145.2269 147.0011 147.5455 148.3494 150.9338 152.0862
   154.7155 154.7969 155.0410 156.9513 157.0943 159.4942 161.4161 161.8225
   162.6166 165.5235 167.0064 168.2844 170.2132 172.5391 173.8224 174.2661
   177.0918 178.0422 179.5854 180.0276

          k =-0.1775-0.1761 0.8832 (   888 PWs)   bands (ev):

   -39.3426 -18.6177  -2.0376  -0.8434  -0.3060  12.7866  15.5957  18.4640
    19.2768  23.7125  32.5390  33.2595  36.3426  37.9002  38.0255  43.0318
    45.1765  49.1418  50.1660  51.7407  54.7295  55.9408  56.3501  58.8799
    61.2395  62.0442  67.1522  67.5229  69.7397  72.1219  75.1378  75.2724
    75.9991  80.9756  83.0585  84.2966  85.7816  89.1228  89.5911  89.8704
    94.8855  95.9122  98.4322 101.3958 102.3142 103.7436 105.6577 106.0278
   107.1358 108.6031 108.8807 110.6562 115.5438 115.7470 118.7066 119.5566
   120.5952 122.0890 122.3406 122.5836 126.9800 129.4731 130.1009 131.1022
   133.0253 133.7528 133.9347 134.7318 135.9736 137.3325 138.5098 139.1005
   141.5960 142.0054 145.1702 146.9501 147.5342 148.3255 151.0568 152.0062
   154.7368 154.8174 155.0261 156.9533 157.1031 159.5070 161.3470 161.7483
   162.5755 165.4831 166.9991 168.2773 170.1920 172.5087 173.7529 174.1669
   176.9834 177.9936 179.5784 180.0064

          k =-0.3543 0.0007 0.7064 (   892 PWs)   bands (ev):

   -39.3339 -18.5096  -1.7546  -1.7483  -0.4693  14.8205  14.8238  17.1596
    18.9834  27.0496  27.0955  33.6009  37.5946  41.6643  41.6720  42.2489
    44.8143  50.1945  51.2092  51.2321  52.2825  55.6758  58.6492  58.6496
    62.0913  62.1490  62.2897  62.6708  67.8605  67.8614  68.6709  75.5893
    75.8256  83.0051  83.0359  86.7676  91.1237  93.6343  93.6818  94.7975
    96.7928  96.8328  98.0337  98.8881  99.8709 103.1098 103.1241 104.7046
   108.7865 109.5657 112.6955 112.7731 112.7773 114.2795 116.5397 116.6618
   122.7540 123.0645 123.0877 126.6171 129.8508 129.8688 130.4151 131.2358
   131.2999 131.5991 132.1218 133.2813 134.6517 136.9528 136.9686 140.1586
   143.5302 145.6618 145.7633 146.5371 151.9963 152.0442 152.5414 153.2384
   153.3377 153.3923 153.7661 153.9743 155.9740 161.0658 161.1044 163.6987
   164.9656 166.3701 166.4166 166.9032 166.9520 167.4466 168.0320 168.5935
   172.0697 172.1244 172.2514 172.3146

          k =-0.5310 0.1775 0.5296 (   888 PWs)   bands (ev):

   -39.3427 -18.6191  -2.0354  -0.8378  -0.3044  12.7719  15.6031  18.4680
    19.2765  23.7206  32.5347  33.2450  36.3595  37.8573  38.0317  43.0017
    45.1788  49.1129  50.1670  51.7201  54.7257  55.9797  56.3886  58.8756
    61.2946  62.0592  67.1898  67.5228  69.7536  72.1393  75.1310  75.2723
    76.0038  81.0023  83.0461  84.3177  85.7731  89.1662  89.5408  89.8079
    94.8217  95.8995  98.4530 101.4043 102.2793 103.6918 105.6533 106.0228
   107.1315 108.5876 108.8311 110.6685 115.5899 115.7679 118.7212 119.4985
   120.6073 122.1347 122.4006 122.5426 126.9672 129.4302 130.0911 131.1238
   133.0656 133.7678 133.8734 134.6951 136.0120 137.3275 138.6031 138.9805
   141.4663 142.0367 145.2269 147.0011 147.5455 148.3494 150.9338 152.0862
   154.7155 154.7969 155.0410 156.9513 157.0943 159.4942 161.4161 161.8225
   162.6166 165.5235 167.0064 168.2844 170.2132 172.5391 173.8224 174.2661
   177.0918 178.0422 179.5854 180.0276

          k =-0.7078 0.3543 0.3528 (   883 PWs)   bands (ev):

   -39.3517 -18.7234  -1.5261  -1.0049   0.0744  11.9143  15.5591  19.1674
    19.1714  28.5993  28.6718  28.7027  36.5292  36.6245  39.6704  42.5583
    46.5142  47.6549  48.9292  52.3274  52.7310  55.0933  57.8122  64.0849
    64.2869  65.1211  66.9466  67.8840  71.2977  72.1939  73.1380  76.1501
    78.4044  80.8669  82.2674  83.3083  85.2628  85.4695  88.8065  92.3960
    94.0879  97.2632  98.1331  98.6145 101.3889 104.3976 104.9454 105.5978
   105.7314 106.8004 108.2269 109.4113 112.7910 116.0861 116.3184 119.0480
   119.4720 119.5462 121.5323 124.0506 124.3476 127.6972 128.9657 132.4309
   133.2515 133.3926 136.1429 136.4817 137.5677 138.1673 138.6666 141.6744
   141.9360 142.3071 143.8590 146.3487 150.0237 150.6411 151.7267 153.8598
   155.1329 155.4400 157.9194 159.4679 160.9620 162.0908 162.3467 163.1944
   163.6107 163.9441 164.0021 166.3997 171.3796 172.1674 173.7178 176.2415
   176.9000 177.2265 179.5731 180.4938

          k =-0.0007 0.0007 1.0600 (   881 PWs)   bands (ev):

   -39.3722 -18.8724  -1.1064  -0.1915  -0.1915  11.2659  18.5524  19.4458
    20.2694  20.2697  32.6328  32.6330  33.3601  34.3777  37.0617  42.7906
    42.9958  42.9981  49.8946  52.3578  55.3134  55.3137  64.0394  66.1706
    66.9495  66.9505  67.4729  73.1498  73.1504  73.3857  73.4139  80.9160
    84.0519  84.1668  84.1686  85.3829  85.4495  85.4678  88.5328  88.8053
    89.8288  89.8329  90.8671  90.9262  97.2799  97.2801 100.4568 102.9136
   106.2626 108.1999 108.3865 108.3903 109.4697 112.7705 114.1657 114.1658
   122.8454 123.6035 123.6045 124.5614 124.5617 127.0561 128.3542 128.5760
   134.9366 135.2256 135.2267 138.3045 139.1809 140.3642 140.3649 141.8424
   143.9092 144.5863 144.5893 145.8400 150.6693 150.6701 154.0823 155.9254
   156.5394 157.5764 157.5828 158.4184 162.1119 166.4757 166.4765 168.7781
   171.4516 172.9040 175.0798 175.0813 176.9983 177.0047 177.1711 177.3763
   177.6025 178.2012 178.2027 178.3252

          k =-0.1775 0.1775 0.8832 (   888 PWs)   bands (ev):

   -39.3426 -18.6179  -2.0371  -0.8438  -0.3044  12.7807  15.5938  18.4669
    19.2731  23.7350  32.5283  33.2448  36.3396  37.8957  38.0133  43.0536
    45.1734  49.1648  50.1821  51.7397  54.7174  55.9390  56.3826  58.8698
    61.2426  62.0054  67.1695  67.4932  69.7545  72.1118  75.1435  75.2445
    75.9860  80.9818  83.0689  84.3121  85.7889  89.1259  89.5809  89.8647
    94.8403  95.9252  98.4959 101.4500 102.2970 103.7270 105.7146 106.0169
   107.1265 108.6097 108.9017 110.6357 115.5015 115.7488 118.7189 119.5044
   120.5758 122.0737 122.3097 122.5802 126.9248 129.5245 130.1118 131.1150
   133.0387 133.7108 134.0106 134.7457 135.9232 137.3328 138.5524 139.1018
   141.6057 141.9780 145.1384 146.9886 147.5522 148.3166 151.0938 152.0830
   154.7236 154.7253 155.0620 157.0347 157.0559 159.4774 161.3431 161.7641
   162.5128 165.3930 166.9871 168.2722 170.2293 172.5844 173.7074 174.1551
   176.9872 178.0289 179.5730 180.0250

          k =-0.3543 0.3543 0.7064 (   883 PWs)   bands (ev):

   -39.3518 -18.7245  -1.5246  -1.0000   0.0760  11.9060  15.5660  19.1706
    19.1743  28.5976  28.6395  28.7202  36.5255  36.6305  39.6493  42.5509
    46.4713  47.6644  48.9162  52.3015  52.7491  55.1174  57.8348  64.1064
    64.2928  65.1751  66.9785  67.8711  71.3456  72.2108  73.1436  76.1584
    78.4099  80.8471  82.2881  83.3188  85.2478  85.4418  88.7570  92.3776
    94.0661  97.2462  98.1139  98.6212 101.4086 104.3831 104.9328 105.5626
   105.7058 106.7795 108.2061 109.4287 112.7765 116.0396 116.3321 119.0043
   119.4074 119.6089 121.5838 124.1080 124.3269 127.6892 129.0177 132.4528
   133.1719 133.4425 136.1427 136.3997 137.6156 138.1722 138.5755 141.7042
   141.9782 142.2799 143.7918 146.3767 150.0440 150.6613 151.7449 153.8948
   155.1469 155.4717 157.9373 159.4869 161.0284 162.1196 162.3739 163.2297
   163.6585 163.9474 164.0827 166.4098 171.3634 172.1046 173.6985 176.2271
   176.8589 177.2864 179.6180 180.5291

          k =-0.5310 0.5310 0.5296 (   896 PWs)   bands (ev):

   -39.3828 -18.9708  -1.0381   0.1928   0.1949  10.2043  17.6977  20.2443
    20.2463  26.6322  27.1929  27.2222  34.7788  34.7851  36.5523  39.7132
    45.3611  45.3939  47.9705  53.5282  53.5524  62.0041  66.1725  66.1810
    66.7506  67.6272  67.6354  70.2219  74.9053  76.3501  76.3622  78.6694
    81.3667  81.3688  82.8785  84.0012  84.6253  84.6590  89.2101  89.2243
    92.1688  92.1808  92.6558  94.6697  94.7178  94.7845 102.4545 104.7507
   104.7728 108.9055 109.3667 109.3766 110.3146 110.3371 111.3108 113.8394
   116.2450 116.3292 116.7828 120.4778 120.5200 120.5531 129.1089 129.1256
   130.0428 135.8586 138.2627 138.2971 142.7744 146.0031 146.0587 147.7542
   147.7872 150.0518 150.4323 150.4331 152.2741 155.4866 155.5247 159.1380
   159.2303 159.2731 161.8502 162.6581 163.8075 163.8867 166.9556 168.2403
   168.3332 169.0173 170.1590 170.2645 171.8419 174.7051 174.8485 174.9650
   176.5066 178.3202 178.3363 179.4654

     the Fermi energy is     2.1005 ev

!    total energy              =     -63.64408769 Ry
     estimated scf accuracy    <       0.00000026 Ry
     smearing contrib. (-TS)   =      -0.00000000 Ry
     internal energy E=F+TS    =     -63.64408769 Ry

     The total energy is F=E-TS. E is the sum of the following terms:
     one-electron contribution =     -25.51818132 Ry
     hartree contribution      =      16.60320234 Ry
     xc contribution           =     -14.09325898 Ry
     ewald contribution        =     -40.63584973 Ry

     convergence has been achieved in   5 iterations

     Forces acting on atoms (cartesian axes, Ry/au):

     atom    1 type  1   force =     0.00000000    0.00000002   -0.00000002
     atom    2 type  2   force =    -0.00000000   -0.00000002    0.00000002

     Total force =     0.000000     Total SCF correction =     0.000000
     SCF correction compared to forces is large: reduce conv_thr to get better values


     Computing stress (Cartesian axis) and pressure

          total   stress  (Ry/bohr**3)                   (kbar)     P=     -241.38
  -0.00164089   0.00000000  -0.00000000         -241.38        0.00       -0.00
   0.00000000  -0.00164089   0.00000000            0.00     -241.38        0.00
  -0.00000000   0.00000000  -0.00164089           -0.00        0.00     -241.38


     Writing all to output data dir ./LiF.save/ :
     XML data file, charge density, pseudopotentials, collected wavefunctions
 
     init_run     :      0.13s CPU      0.15s WALL (       1 calls)
     electrons    :      5.56s CPU      5.70s WALL (       1 calls)
     forces       :      0.01s CPU      0.01s WALL (       1 calls)
     stress       :      0.02s CPU      0.02s WALL (       1 calls)

     Called by init_run:
     wfcinit      :      0.11s CPU      0.12s WALL (       1 calls)
     potinit      :      0.00s CPU      0.00s WALL (       1 calls)
     hinit0       :      0.02s CPU      0.02s WALL (       1 calls)

     Called by electrons:
     c_bands      :      5.34s CPU      5.47s WALL (       6 calls)
     sum_band     :      0.21s CPU      0.22s WALL (       6 calls)
     v_of_rho     :      0.00s CPU      0.00s WALL (       6 calls)
     mix_rho      :      0.00s CPU      0.00s WALL (       6 calls)

     Called by c_bands:
     init_us_2    :      0.00s CPU      0.00s WALL (     240 calls)
     cegterg      :      4.75s CPU      4.88s WALL (      96 calls)

     Called by *egterg:
     cdiaghg      :      3.52s CPU      3.55s WALL (     309 calls)
     h_psi        :      1.02s CPU      1.08s WALL (     341 calls)
     g_psi        :      0.00s CPU      0.00s WALL (     229 calls)

     Called by h_psi:
     h_psi:calbec :      0.03s CPU      0.03s WALL (     341 calls)
     vloc_psi     :      0.98s CPU      1.04s WALL (     341 calls)
                                        0.00s GPU  (     341 calls)
     add_vuspsi   :      0.01s CPU      0.01s WALL (     341 calls)

     General routines
     calbec       :      0.04s CPU      0.05s WALL (     613 calls)
     fft          :      0.00s CPU      0.00s WALL (      26 calls)
     ffts         :      0.00s CPU      0.00s WALL (       6 calls)
     fftw         :      1.08s CPU      1.15s WALL (   58912 calls)
 
     Parallel routines
 
     PWSCF        :      5.85s CPU      6.19s WALL

 
   This run was terminated on:  22:14:58   3Jul2026            

=------------------------------------------------------------------------------=
   JOB DONE.
=------------------------------------------------------------------------------=
Error in system call pthread_mutex_destroy: Device or resource busy
    src/mpi/init/initthread.c:242
Error in system call pthread_mutex_destroy: Device or resource busy
    src/mpi/init/initthread.c:242
Error in system call pthread_mutex_destroy: Device or resource busy
    src/mpi/init/initthread.c:242
Error in system call pthread_mutex_destroy: Device or resource busy
    src/mpi/init/initthread.c:242
Error in system call pthread_mutex_destroy: Device or resource busy
    src/mpi/init/initthread.c:242
Error in system call pthread_mutex_destroy: Device or resource busy
    src/mpi/init/initthread.c:242
Error in system call pthread_mutex_destroy: Device or resource busy
    src/mpi/init/initthread.c:242
Error in system call pthread_mutex_destroy: Device or resource busy
    src/mpi/init/initthread.c:242
Error in system call pthread_mutex_destroy: Device or resource busy
    src/mpi/init/initthread.c:242
Error in system call pthread_mutex_destroy: Device or resource busy
    src/mpi/init/initthread.c:242
Error in system call pthread_mutex_destroy: Device or resource busy
    src/mpi/init/initthread.c:242
Error in system call pthread_mutex_destroy: Device or resource busy
    src/mpi/init/initthread.c:242
Error in system call pthread_mutex_destroy: Device or resource busy
    src/mpi/init/initthread.c:242
Error in system call pthread_mutex_destroy: Device or resource busy
    src/mpi/init/initthread.c:242
Error in system call pthread_mutex_destroy: Device or resource busy
    src/mpi/init/initthread.c:242
Error in system call pthread_mutex_destroy: Device or resource busy
    src/mpi/init/initthread.c:242
Error in system call pthread_mutex_destroy: Device or resource busy
    src/mpi/init/initthread.c:242
Error in system call pthread_mutex_destroy: Device or resource busy
    src/mpi/init/initthread.c:242
Error in system call pthread_mutex_destroy: Device or resource busy
    src/mpi/init/initthread.c:242
Error in system call pthread_mutex_destroy: Device or resource busy
    src/mpi/init/initthread.c:242
Error in system call pthread_mutex_destroy: Device or resource busy
    src/mpi/init/initthread.c:242
Error in system call pthread_mutex_destroy: Device or resource busy
    src/mpi/init/initthread.c:242
Error in system call pthread_mutex_destroy: Device or resource busy
    src/mpi/init/initthread.c:242
Error in system call pthread_mutex_destroy: Device or resource busy
    src/mpi/init/initthread.c:242
Error in system call pthread_mutex_destroy: Device or resource busy
    src/mpi/init/initthread.c:242
Error in system call pthread_mutex_destroy: Device or resource busy
    src/mpi/init/initthread.c:242
Error in system call pthread_mutex_destroy: Device or resource busy
    src/mpi/init/initthread.c:242
Error in system call pthread_mutex_destroy: Device or resource busy
    src/mpi/init/initthread.c:242
Error in system call pthread_mutex_destroy: Device or resource busy
    src/mpi/init/initthread.c:242
Error in system call pthread_mutex_destroy: Device or resource busy
    src/mpi/init/initthread.c:242
Error in system call pthread_mutex_destroy: Device or resource busy
    src/mpi/init/initthread.c:242
Error in system call pthread_mutex_destroy: Device or resource busy
    src/mpi/init/initthread.c:242
Error in system call pthread_mutex_destroy: Device or resource busy
    src/mpi/init/initthread.c:242
Error in system call pthread_mutex_destroy: Device or resource busy
    src/mpi/init/initthread.c:242
Error in system call pthread_mutex_destroy: Device or resource busy
    src/mpi/init/initthread.c:242
Error in system call pthread_mutex_destroy: Device or resource busy
    src/mpi/init/initthread.c:242
Error in system call pthread_mutex_destroy: Device or resource busy
    src/mpi/init/initthread.c:242
Error in system call pthread_mutex_destroy: Device or resource busy
    src/mpi/init/initthread.c:242
Error in system call pthread_mutex_destroy: Device or resource busy
    src/mpi/init/initthread.c:242
Error in system call pthread_mutex_destroy: Device or resource busy
    src/mpi/init/initthread.c:242
Error in system call pthread_mutex_destroy: Device or resource busy
    src/mpi/init/initthread.c:242
Error in system call pthread_mutex_destroy: Device or resource busy
    src/mpi/init/initthread.c:242
Error in system call pthread_mutex_destroy: Device or resource busy
    src/mpi/init/initthread.c:242
Error in system call pthread_mutex_destroy: Device or resource busy
    src/mpi/init/initthread.c:242
Error in system call pthread_mutex_destroy: Device or resource busy
    src/mpi/init/initthread.c:242
Error in system call pthread_mutex_destroy: Device or resource busy
    src/mpi/init/initthread.c:242
Error in system call pthread_mutex_destroy: Device or resource busy
    src/mpi/init/initthread.c:242
Error in system call pthread_mutex_destroy: Device or resource busy
    src/mpi/init/initthread.c:242
Error in system call pthread_mutex_destroy: Device or resource busy
    src/mpi/init/initthread.c:242
Error in system call pthread_mutex_destroy: Device or resource busy
    src/mpi/init/initthread.c:242
Error in system call pthread_mutex_destroy: Device or resource busy
    src/mpi/init/initthread.c:242
Error in system call pthread_mutex_destroy: Device or resource busy
    src/mpi/init/initthread.c:242
Error in system call pthread_mutex_destroy: Device or resource busy
    src/mpi/init/initthread.c:242
Error in system call pthread_mutex_destroy: Device or resource busy
    src/mpi/init/initthread.c:242
Error in system call pthread_mutex_destroy: Device or resource busy
    src/mpi/init/initthread.c:242
Error in system call pthread_mutex_destroy: Device or resource busy
    src/mpi/init/initthread.c:242
