&CONTROL
    prefix = 'LiF'
    calculation = 'scf'
    wf_collect = .true.
    outdir = './'
    wfcdir = './'
    tstress = .true.
    tprnfor =  .true.
    pseudo_dir = '../'
/
&SYSTEM
    ibrav = 0
    nat = 2
    ntyp = 2
    nbnd = 100
    ecutwfc = 60
    occupations = 'smearing'
    smearing = 'gaussian'
    degauss = 0.001
    nosym = .true.
/
&ELECTRONS
    electron_maxstep = 100
    mixing_mode = 'plain'
    mixing_beta = 0.7
    mixing_ndim = 8
    diagonalization = 'david'
    diago_david_ndim = 4
    diago_full_acc = .true.
/
CELL_PARAMETERS angstrom
-2.02948455  0.000000  2.02948455
0.000000000  2.02948455 2.02948455
-2.02948455 2.02948455 0.000000000
ATOMIC_SPECIES
 Li 6.941  Li.upf
 F 18.9984 F.upf
ATOMIC_POSITIONS angstrom
Li   0.000000000   0.000000000   0.000000000
F   -2.02948455    2.02948455    2.02948455
K_POINTS crystal
64
0.00000000  0.00000000  0.00100000  1.0
0.00000000  0.00000000  0.25100000  1.0
0.00000000  0.00000000  0.50100000  1.0
0.00000000  0.00000000  0.75100000  1.0
0.00000000  0.25000000  0.00100000  1.0
0.00000000  0.25000000  0.25100000  1.0
0.00000000  0.25000000  0.50100000  1.0
0.00000000  0.25000000  0.75100000  1.0
0.00000000  0.50000000  0.00100000  1.0
0.00000000  0.50000000  0.25100000  1.0
0.00000000  0.50000000  0.50100000  1.0
0.00000000  0.50000000  0.75100000  1.0
0.00000000  0.75000000  0.00100000  1.0
0.00000000  0.75000000  0.25100000  1.0
0.00000000  0.75000000  0.50100000  1.0
0.00000000  0.75000000  0.75100000  1.0
0.25000000  0.00000000  0.00100000  1.0
0.25000000  0.00000000  0.25100000  1.0
0.25000000  0.00000000  0.50100000  1.0
0.25000000  0.00000000  0.75100000  1.0
0.25000000  0.25000000  0.00100000  1.0
0.25000000  0.25000000  0.25100000  1.0
0.25000000  0.25000000  0.50100000  1.0
0.25000000  0.25000000  0.75100000  1.0
0.25000000  0.50000000  0.00100000  1.0
0.25000000  0.50000000  0.25100000  1.0
0.25000000  0.50000000  0.50100000  1.0
0.25000000  0.50000000  0.75100000  1.0
0.25000000  0.75000000  0.00100000  1.0
0.25000000  0.75000000  0.25100000  1.0
0.25000000  0.75000000  0.50100000  1.0
0.25000000  0.75000000  0.75100000  1.0
0.50000000  0.00000000  0.00100000  1.0
0.50000000  0.00000000  0.25100000  1.0
0.50000000  0.00000000  0.50100000  1.0
0.50000000  0.00000000  0.75100000  1.0
0.50000000  0.25000000  0.00100000  1.0
0.50000000  0.25000000  0.25100000  1.0
0.50000000  0.25000000  0.50100000  1.0
0.50000000  0.25000000  0.75100000  1.0
0.50000000  0.50000000  0.00100000  1.0
0.50000000  0.50000000  0.25100000  1.0
0.50000000  0.50000000  0.50100000  1.0
0.50000000  0.50000000  0.75100000  1.0
0.50000000  0.75000000  0.00100000  1.0
0.50000000  0.75000000  0.25100000  1.0
0.50000000  0.75000000  0.50100000  1.0
0.50000000  0.75000000  0.75100000  1.0
0.75000000  0.00000000  0.00100000  1.0
0.75000000  0.00000000  0.25100000  1.0
0.75000000  0.00000000  0.50100000  1.0
0.75000000  0.00000000  0.75100000  1.0
0.75000000  0.25000000  0.00100000  1.0
0.75000000  0.25000000  0.25100000  1.0
0.75000000  0.25000000  0.50100000  1.0
0.75000000  0.25000000  0.75100000  1.0
0.75000000  0.50000000  0.00100000  1.0
0.75000000  0.50000000  0.25100000  1.0
0.75000000  0.50000000  0.50100000  1.0
0.75000000  0.50000000  0.75100000  1.0
0.75000000  0.75000000  0.00100000  1.0
0.75000000  0.75000000  0.25100000  1.0
0.75000000  0.75000000  0.50100000  1.0
0.75000000  0.75000000  0.75100000  1.0
