Ignoring PCI device with non-16bit domain
[hmnode006.cluster:mpi_rank_0][MPID_Init] [Performance Suggestion]: Application has requested for multi-thread capability. If allocating memory from different pthreads/OpenMP threads, please consider setting MV2_USE_ALIGNED_ALLOC=1 for improved performance.
Use MV2_USE_THREAD_WARNING=0 to suppress this error message.

     Program PWSCF v.7.5 starts on  3Jul2026 at 22:14:43 

     This program is part of the open-source Quantum ESPRESSO suite
     for quantum simulation of materials; please cite
         "P. Giannozzi et al., J. Phys.:Condens. Matter 21 395502 (2009);
         "P. Giannozzi et al., J. Phys.:Condens. Matter 29 465901 (2017);
         "P. Giannozzi et al., J. Chem. Phys. 152 154105 (2020);
          URL http://www.quantum-espresso.org", 
     in publications or presentations arising from this work. More details at
     http://www.quantum-espresso.org/quote

     Parallel version (MPI & OpenMP), running on      56 processor cores
     Number of MPI processes:                56
     Threads/MPI process:                     1

     MPI processes distributed on     1 nodes
     917728 MiB available memory on the printing compute node when the environment starts
 
     Waiting for input...
     Reading input from standard input

     Current dimensions of program PWSCF are:
     Max number of different atomic species (ntypx) = 10
     Max number of k-points (npk) =  40000
     Max angular momentum in pseudopotentials (lmaxx) =  4
 
     K-points division:     npool     =       4
     R & G space division:  proc/nbgrp/npool/nimage =      14
     Subspace diagonalization in iterative solution of the eigenvalue problem:
     a serial algorithm will be used

 
     Parallelization info
     --------------------
     sticks:   dense  smooth     PW     G-vecs:    dense   smooth      PW
     Min          35      35     11                  507      507      99
     Max          36      36     12                  509      509     102
     Sum         499     499    163                 7119     7119    1411
 
     Using Slab Decomposition
 


     bravais-lattice index     =            0
     lattice parameter (alat)  =       5.4237  a.u.
     unit-cell volume          =     112.8194 (a.u.)^3
     number of atoms/cell      =            2
     number of atomic types    =            2
     number of electrons       =        10.00
     number of Kohn-Sham states=          100
     kinetic-energy cutoff     =      60.0000  Ry
     charge density cutoff     =     240.0000  Ry
     scf convergence threshold =      1.0E-06
     mixing beta               =       0.7000
     number of iterations used =            8  plain     mixing
     Exchange-correlation= SLA  PW   NOGX NOGC
                           (   1   4   0   0   0   0   0)

     celldm(1)=   5.423749  celldm(2)=   0.000000  celldm(3)=   0.000000
     celldm(4)=   0.000000  celldm(5)=   0.000000  celldm(6)=   0.000000

     crystal axes: (cart. coord. in units of alat)
               a(1) = (  -0.707107   0.000000   0.707107 )  
               a(2) = (   0.000000   0.707107   0.707107 )  
               a(3) = (  -0.707107   0.707107   0.000000 )  

     reciprocal axes: (cart. coord. in units 2 pi/alat)
               b(1) = ( -0.707107 -0.707107  0.707107 )  
               b(2) = (  0.707107  0.707107  0.707107 )  
               b(3) = ( -0.707107  0.707107 -0.707107 )  


     PseudoPot. # 1 for Li read from file:
     ../Li.upf
     MD5 check sum: cbd9518a540ce8f7f4a0218f2f072fdd
     Pseudo is Norm-conserving, Zval =  3.0
     Generated using ONCVPSP code by D. R. Hamann
     Using radial grid of 1944 points,  4 beta functions with: 
                l(1) =   0
                l(2) =   0
                l(3) =   1
                l(4) =   1

     PseudoPot. # 2 for F  read from file:
     ../F.upf
     MD5 check sum: 3dea638f9c9153f3282cad43c3474f58
     Pseudo is Norm-conserving + core correction, Zval =  7.0
     Generated using ONCVPSP code by D. R. Hamann
     Using radial grid of  824 points,  5 beta functions with: 
                l(1) =   0
                l(2) =   0
                l(3) =   1
                l(4) =   1
                l(5) =   2

     atomic species   valence    mass     pseudopotential
     Li                3.00     6.94100     Li( 1.00)
     F                 7.00    18.99840     F ( 1.00)

     No symmetry found



   Cartesian axes

     site n.     atom                  positions (alat units)
         1        Li     tau(   1) = (   0.0000000   0.0000000   0.0000000  )
         2        F      tau(   2) = (  -0.7071068   0.7071068   0.7071068  )

     number of k points=    64  Gaussian smearing, width (Ry)=  0.0010
                       cart. coord. in units 2pi/alat
        k(    1) = (   0.0000000   0.0000000   0.0000000), wk =   0.0312500
        k(    2) = (  -0.1767767   0.1767767  -0.1767767), wk =   0.0312500
        k(    3) = (  -0.3535534   0.3535534  -0.3535534), wk =   0.0312500
        k(    4) = (  -0.5303301   0.5303301  -0.5303301), wk =   0.0312500
        k(    5) = (   0.1767767   0.1767767   0.1767767), wk =   0.0312500
        k(    6) = (   0.0000000   0.3535534   0.0000000), wk =   0.0312500
        k(    7) = (  -0.1767767   0.5303301  -0.1767767), wk =   0.0312500
        k(    8) = (  -0.3535534   0.7071068  -0.3535534), wk =   0.0312500
        k(    9) = (   0.3535534   0.3535534   0.3535534), wk =   0.0312500
        k(   10) = (   0.1767767   0.5303301   0.1767767), wk =   0.0312500
        k(   11) = (   0.0000000   0.7071068   0.0000000), wk =   0.0312500
        k(   12) = (  -0.1767767   0.8838835  -0.1767767), wk =   0.0312500
        k(   13) = (   0.5303301   0.5303301   0.5303301), wk =   0.0312500
        k(   14) = (   0.3535534   0.7071068   0.3535534), wk =   0.0312500
        k(   15) = (   0.1767767   0.8838835   0.1767767), wk =   0.0312500
        k(   16) = (   0.0000000   1.0606602   0.0000000), wk =   0.0312500
        k(   17) = (  -0.1767767  -0.1767767   0.1767767), wk =   0.0312500
        k(   18) = (  -0.3535534   0.0000000   0.0000000), wk =   0.0312500
        k(   19) = (  -0.5303301   0.1767767  -0.1767767), wk =   0.0312500
        k(   20) = (  -0.7071068   0.3535534  -0.3535534), wk =   0.0312500
        k(   21) = (   0.0000000   0.0000000   0.3535534), wk =   0.0312500
        k(   22) = (  -0.1767767   0.1767767   0.1767767), wk =   0.0312500
        k(   23) = (  -0.3535534   0.3535534   0.0000000), wk =   0.0312500
        k(   24) = (  -0.5303301   0.5303301  -0.1767767), wk =   0.0312500
        k(   25) = (   0.1767767   0.1767767   0.5303301), wk =   0.0312500
        k(   26) = (   0.0000000   0.3535534   0.3535534), wk =   0.0312500
        k(   27) = (  -0.1767767   0.5303301   0.1767767), wk =   0.0312500
        k(   28) = (  -0.3535534   0.7071068   0.0000000), wk =   0.0312500
        k(   29) = (   0.3535534   0.3535534   0.7071068), wk =   0.0312500
        k(   30) = (   0.1767767   0.5303301   0.5303301), wk =   0.0312500
        k(   31) = (   0.0000000   0.7071068   0.3535534), wk =   0.0312500
        k(   32) = (  -0.1767767   0.8838835   0.1767767), wk =   0.0312500
        k(   33) = (  -0.3535534  -0.3535534   0.3535534), wk =   0.0312500
        k(   34) = (  -0.5303301  -0.1767767   0.1767767), wk =   0.0312500
        k(   35) = (  -0.7071068   0.0000000   0.0000000), wk =   0.0312500
        k(   36) = (  -0.8838835   0.1767767  -0.1767767), wk =   0.0312500
        k(   37) = (  -0.1767767  -0.1767767   0.5303301), wk =   0.0312500
        k(   38) = (  -0.3535534   0.0000000   0.3535534), wk =   0.0312500
        k(   39) = (  -0.5303301   0.1767767   0.1767767), wk =   0.0312500
        k(   40) = (  -0.7071068   0.3535534   0.0000000), wk =   0.0312500
        k(   41) = (   0.0000000   0.0000000   0.7071068), wk =   0.0312500
        k(   42) = (  -0.1767767   0.1767767   0.5303301), wk =   0.0312500
        k(   43) = (  -0.3535534   0.3535534   0.3535534), wk =   0.0312500
        k(   44) = (  -0.5303301   0.5303301   0.1767767), wk =   0.0312500
        k(   45) = (   0.1767767   0.1767767   0.8838835), wk =   0.0312500
        k(   46) = (   0.0000000   0.3535534   0.7071068), wk =   0.0312500
        k(   47) = (  -0.1767767   0.5303301   0.5303301), wk =   0.0312500
        k(   48) = (  -0.3535534   0.7071068   0.3535534), wk =   0.0312500
        k(   49) = (  -0.5303301  -0.5303301   0.5303301), wk =   0.0312500
        k(   50) = (  -0.7071068  -0.3535534   0.3535534), wk =   0.0312500
        k(   51) = (  -0.8838835  -0.1767767   0.1767767), wk =   0.0312500
        k(   52) = (  -1.0606602   0.0000000   0.0000000), wk =   0.0312500
        k(   53) = (  -0.3535534  -0.3535534   0.7071068), wk =   0.0312500
        k(   54) = (  -0.5303301  -0.1767767   0.5303301), wk =   0.0312500
        k(   55) = (  -0.7071068   0.0000000   0.3535534), wk =   0.0312500
        k(   56) = (  -0.8838835   0.1767767   0.1767767), wk =   0.0312500
        k(   57) = (  -0.1767767  -0.1767767   0.8838835), wk =   0.0312500
        k(   58) = (  -0.3535534   0.0000000   0.7071068), wk =   0.0312500
        k(   59) = (  -0.5303301   0.1767767   0.5303301), wk =   0.0312500
        k(   60) = (  -0.7071068   0.3535534   0.3535534), wk =   0.0312500
        k(   61) = (   0.0000000   0.0000000   1.0606602), wk =   0.0312500
        k(   62) = (  -0.1767767   0.1767767   0.8838835), wk =   0.0312500
        k(   63) = (  -0.3535534   0.3535534   0.7071068), wk =   0.0312500
        k(   64) = (  -0.5303301   0.5303301   0.5303301), wk =   0.0312500

     Dense  grid:     7119 G-vectors     FFT dimensions: (  27,  27,  27)

     Estimated max dynamical RAM per process >      11.88 MB

     Estimated total dynamical RAM >     660.28 MB

     Check: negative core charge=   -0.000008

     Initial potential from superposition of free atoms

     starting charge       9.9953, renormalised to      10.0000
     Starting wfcs are    6 randomized atomic wfcs +   94 random wfcs

     total cpu time spent up to now is        0.3 secs

     Self-consistent Calculation

     iteration #  1     ecut=    60.00 Ry     beta= 0.70
     Davidson diagonalization with overlap
     ethr =  1.00E-02,  avg # of iterations =  4.0

     Threshold (ethr) on eigenvalues was too large:
     Diagonalizing with lowered threshold

     Davidson diagonalization with overlap
     ethr =  9.74E-04,  avg # of iterations =  1.0

     total cpu time spent up to now is        2.6 secs

     total energy              =     -63.60682181 Ry
     estimated scf accuracy    <       0.09738753 Ry

     iteration #  2     ecut=    60.00 Ry     beta= 0.70
     Davidson diagonalization with overlap
     ethr =  9.74E-04,  avg # of iterations =  2.0

     total cpu time spent up to now is        3.3 secs

     total energy              =     -63.63022977 Ry
     estimated scf accuracy    <       0.06303694 Ry

     iteration #  3     ecut=    60.00 Ry     beta= 0.70
     Davidson diagonalization with overlap
     ethr =  6.30E-04,  avg # of iterations =  1.0

     total cpu time spent up to now is        3.8 secs

     total energy              =     -63.64401959 Ry
     estimated scf accuracy    <       0.00058414 Ry

     iteration #  4     ecut=    60.00 Ry     beta= 0.70
     Davidson diagonalization with overlap
     ethr =  5.84E-06,  avg # of iterations =  2.6

     total cpu time spent up to now is        4.7 secs

     total energy              =     -63.64408708 Ry
     estimated scf accuracy    <       0.00000317 Ry

     iteration #  5     ecut=    60.00 Ry     beta= 0.70
     Davidson diagonalization with overlap
     ethr =  3.17E-08,  avg # of iterations =  2.6

     total cpu time spent up to now is        5.8 secs

     End of self-consistent calculation

          k = 0.0000 0.0000 0.0000 (   893 PWs)   bands (ev):

   -39.4140 -19.1750   0.3113   0.3113   0.3113   8.9735  23.5297  23.5297
    23.5297  24.0854  24.0854  24.0854  26.9597  31.1983  31.1983  44.3185
    44.3185  44.3185  48.0079  64.2866  64.2866  64.2866  66.6066  67.6778
    67.6778  68.5286  68.5286  68.5286  68.8132  68.8132  68.8132  84.1454
    84.1454  90.0215  90.0215  90.0215  93.9882  93.9882  93.9882  95.4506
    95.4506  95.4506  96.4391  96.4391  96.4391  97.0307  98.0989  98.0989
    98.0989  98.8866  98.8866  98.8866  99.3721  99.3721  99.8537 102.3415
   102.3415 102.3415 103.3010 121.9920 121.9920 121.9920 128.4049 134.4624
   134.4624 142.5383 142.5383 142.5383 149.0232 156.2079 156.2079 156.2079
   162.1029 162.1029 162.4787 162.4787 162.4787 163.1670 163.1670 163.1670
   166.3792 169.1599 169.1599 169.1599 169.5192 170.1738 170.1738 170.1738
   170.5879 170.5879 170.9551 170.9551 170.9551 170.9939 170.9939 171.6622
   171.6622 171.6622 174.1062 174.1062

          k =-0.1768 0.1768-0.1768 (   896 PWs)   bands (ev):

   -39.3828 -18.9703  -1.0407   0.1936   0.1936  10.2061  17.6928  20.2412
    20.2412  26.6373  27.2127  27.2127  34.7880  34.7880  36.5632  39.7112
    45.3798  45.3798  47.9687  53.5280  53.5280  62.0033  66.1706  66.1706
    66.7465  67.6355  67.6355  70.2251  74.9073  76.3407  76.3407  78.6468
    81.3559  81.3559  82.8815  83.9865  84.6568  84.6568  89.2256  89.2256
    92.1730  92.1730  92.6512  94.7023  94.7023  94.7651 102.4671 104.7750
   104.7750 108.9187 109.3836 109.3836 110.3442 110.3442 111.3306 113.8444
   116.2849 116.2849 116.7918 120.5361 120.5361 120.5428 129.0993 129.0993
   130.0687 135.8368 138.2554 138.2554 142.7605 146.0055 146.0055 147.7534
   147.7534 150.0544 150.4040 150.4040 152.2406 155.5215 155.5215 159.1440
   159.2459 159.2459 161.8490 162.6572 163.8434 163.8434 166.9465 168.2849
   168.2849 169.0002 170.2182 170.2182 171.8424 174.8021 174.8021 174.9413
   176.4924 178.3010 178.3010 179.4789

          k =-0.3536 0.3536-0.3536 (   886 PWs)   bands (ev):

   -39.3507 -18.7498  -2.1750   0.0920   0.0920  10.6280  16.4703  18.6202
    18.6202  30.0610  30.5575  30.5575  33.1294  36.6440  36.6440  44.6604
    44.6604  46.7097  52.1304  52.3422  52.3422  54.7446  60.6692  60.6692
    65.0340  67.8443  70.1401  70.1401  71.1818  71.1818  74.6532  74.7102
    74.7102  74.8988  76.1432  86.2179  86.2179  89.6948  90.2162  90.2162
    91.4356  97.0083  98.6083  98.6083 102.4497 102.8215 102.8215 107.6403
   108.3390 108.3390 109.5529 109.5529 116.2559 119.3631 119.3631 121.2721
   122.8851 122.8851 123.9620 126.5369 126.5369 127.5407 127.5407 128.2299
   128.7389 128.7389 128.8660 128.8660 130.0388 130.1830 139.7671 141.9621
   142.4366 142.4366 147.6977 147.6977 148.0830 148.0830 148.8303 158.2716
   158.2716 159.0126 159.2441 161.7901 161.7901 162.6145 164.1149 165.1385
   165.1385 166.0102 169.3948 172.1359 172.1359 174.8351 174.9175 174.9175
   178.4675 178.4675 179.1501 180.0990

          k =-0.5303 0.5303-0.5303 (   896 PWs)   bands (ev):

   -39.3828 -18.9703  -1.0407   0.1936   0.1936  10.2061  17.6928  20.2412
    20.2412  26.6373  27.2127  27.2127  34.7880  34.7880  36.5632  39.7112
    45.3798  45.3798  47.9687  53.5280  53.5280  62.0033  66.1706  66.1706
    66.7465  67.6355  67.6355  70.2251  74.9073  76.3407  76.3407  78.6468
    81.3559  81.3559  82.8815  83.9865  84.6568  84.6568  89.2256  89.2256
    92.1730  92.1730  92.6512  94.7023  94.7023  94.7651 102.4671 104.7750
   104.7750 108.9187 109.3836 109.3836 110.3442 110.3442 111.3306 113.8444
   116.2849 116.2849 116.7918 120.5361 120.5361 120.5428 129.0993 129.0993
   130.0687 135.8368 138.2554 138.2554 142.7605 146.0055 146.0055 147.7534
   147.7534 150.0544 150.4040 150.4040 152.2406 155.5215 155.5215 159.1440
   159.2459 159.2459 161.8490 162.6572 163.8434 163.8434 166.9465 168.2849
   168.2849 169.0002 170.2182 170.2182 171.8424 174.8021 174.8021 174.9413
   176.4924 178.3010 178.3010 179.4789

          k = 0.1768 0.1768 0.1768 (   896 PWs)   bands (ev):

   -39.3828 -18.9703  -1.0407   0.1936   0.1936  10.2061  17.6928  20.2412
    20.2412  26.6373  27.2127  27.2127  34.7880  34.7880  36.5632  39.7112
    45.3798  45.3798  47.9687  53.5280  53.5280  62.0033  66.1706  66.1706
    66.7465  67.6355  67.6355  70.2251  74.9073  76.3407  76.3407  78.6468
    81.3559  81.3559  82.8815  83.9865  84.6568  84.6568  89.2256  89.2256
    92.1730  92.1730  92.6512  94.7023  94.7023  94.7651 102.4671 104.7750
   104.7750 108.9187 109.3836 109.3836 110.3442 110.3442 111.3306 113.8444
   116.2849 116.2849 116.7918 120.5361 120.5361 120.5428 129.0993 129.0993
   130.0687 135.8368 138.2554 138.2554 142.7605 146.0055 146.0055 147.7534
   147.7534 150.0544 150.4040 150.4040 152.2406 155.5215 155.5215 159.1440
   159.2459 159.2459 161.8490 162.6572 163.8434 163.8434 166.9465 168.2849
   168.2849 169.0002 170.2182 170.2182 171.8424 174.8021 174.8021 174.9413
   176.4924 178.3010 178.3010 179.4789

          k = 0.0000 0.3536 0.0000 (   881 PWs)   bands (ev):

   -39.3723 -18.8735  -1.1017  -0.1900  -0.1900  11.2579  18.5615  19.4532
    20.2722  20.2722  32.6106  32.6106  33.3513  34.3799  37.0344  42.7977
    43.0008  43.0008  49.8802  52.3845  55.3278  55.3278  64.0435  66.1650
    66.9679  66.9679  67.4701  73.1673  73.1673  73.4067  73.4295  80.9217
    84.0494  84.1321  84.1321  85.4185  85.4705  85.4705  88.5505  88.7610
    89.8406  89.8406  90.8677  90.9321  97.2614  97.2614 100.4985 102.8886
   106.2373 108.1687 108.3624 108.3624 109.4394 112.7520 114.1548 114.1548
   122.8014 123.5706 123.5706 124.5173 124.5173 127.0541 128.3834 128.5124
   134.9507 135.2406 135.2406 138.3098 139.2078 140.4216 140.4216 141.8861
   143.9705 144.6328 144.6328 145.8830 150.6774 150.6774 154.1022 155.9342
   156.5401 157.5994 157.5994 158.4390 162.1297 166.4786 166.4786 168.7748
   171.4484 172.8658 175.0852 175.0852 177.0354 177.0354 177.1920 177.3726
   177.6409 178.1934 178.1934 178.3330

          k =-0.1768 0.5303-0.1768 (   888 PWs)   bands (ev):

   -39.3426 -18.6184  -2.0365  -0.8406  -0.3052  12.7792  15.5994  18.4660
    19.2767  23.7164  32.5376  33.2515  36.3511  37.8788  38.0285  43.0167
    45.1776  49.1274  50.1666  51.7303  54.7278  55.9607  56.3687  58.8776
    61.2670  62.0516  67.1726  67.5217  69.7462  72.1307  75.1399  75.2689
    75.9993  80.9902  83.0519  84.3063  85.7774  89.1443  89.5661  89.8390
    94.8534  95.9059  98.4426 101.4005 102.2975 103.7175 105.6549 106.0256
   107.1335 108.5954 108.8554 110.6625 115.5676 115.7569 118.7146 119.5280
   120.6003 122.1185 122.3708 122.5556 126.9735 129.4522 130.0962 131.1134
   133.0463 133.7620 133.9037 134.7120 135.9920 137.3295 138.5559 139.0406
   141.5308 142.0211 145.1984 146.9759 147.5399 148.3376 150.9953 152.0459
   154.7295 154.8065 155.0312 156.9959 157.0543 159.5007 161.3891 161.7792
   162.5949 165.5030 167.0061 168.2783 170.2028 172.5237 173.7873 174.2162
   177.0385 178.0176 179.5828 180.0191

          k =-0.3536 0.7071-0.3536 (   883 PWs)   bands (ev):

   -39.3517 -18.7234  -1.5261  -1.0049   0.0744  11.9143  15.5591  19.1674
    19.1714  28.6156  28.6557  28.7024  36.5293  36.6244  39.6704  42.5584
    46.5142  47.6548  48.9294  52.3275  52.7312  55.0929  57.8122  64.0851
    64.2874  65.1212  66.9463  67.8839  71.2977  72.1939  73.1380  76.1499
    78.4045  80.8667  82.2715  83.3042  85.2635  85.4692  88.8062  92.3962
    94.0881  97.2632  98.1356  98.6119 101.3888 104.3993 104.9465 105.5974
   105.7318 106.7993 108.2258 109.4105 112.7911 116.0894 116.3151 119.0585
   119.4612 119.5463 121.5322 124.0505 124.3478 127.6976 128.9658 132.4312
   133.2523 133.3911 136.1431 136.4822 137.5692 138.1660 138.6660 141.6866
   141.9238 142.3077 143.8577 146.3488 150.0277 150.6403 151.7244 153.8607
   155.1321 155.4399 157.9197 159.4683 160.9621 162.1073 162.3300 163.1958
   163.6164 163.9407 163.9979 166.3984 171.3823 172.1673 173.7170 176.2400
   176.9002 177.2262 179.5773 180.4895

          k = 0.3536 0.3536 0.3536 (   886 PWs)   bands (ev):

   -39.3507 -18.7498  -2.1750   0.0920   0.0920  10.6280  16.4703  18.6202
    18.6202  30.0610  30.5575  30.5575  33.1294  36.6440  36.6440  44.6604
    44.6604  46.7097  52.1304  52.3422  52.3422  54.7446  60.6692  60.6692
    65.0340  67.8443  70.1401  70.1401  71.1818  71.1818  74.6532  74.7102
    74.7102  74.8988  76.1432  86.2179  86.2179  89.6948  90.2162  90.2162
    91.4356  97.0083  98.6083  98.6083 102.4497 102.8215 102.8215 107.6403
   108.3390 108.3390 109.5529 109.5529 116.2559 119.3631 119.3631 121.2721
   122.8851 122.8851 123.9620 126.5369 126.5369 127.5407 127.5407 128.2299
   128.7389 128.7389 128.8660 128.8660 130.0388 130.1830 139.7671 141.9621
   142.4366 142.4366 147.6977 147.6977 148.0830 148.0830 148.8303 158.2716
   158.2716 159.0126 159.2441 161.7901 161.7901 162.6145 164.1149 165.1385
   165.1385 166.0102 169.3948 172.1359 172.1359 174.8351 174.9175 174.9175
   178.4675 178.4675 179.1501 180.0990

          k = 0.1768 0.5303 0.1768 (   888 PWs)   bands (ev):

   -39.3426 -18.6184  -2.0365  -0.8406  -0.3052  12.7792  15.5994  18.4660
    19.2767  23.7164  32.5376  33.2515  36.3511  37.8788  38.0285  43.0167
    45.1776  49.1274  50.1666  51.7303  54.7278  55.9607  56.3687  58.8776
    61.2670  62.0516  67.1726  67.5217  69.7462  72.1307  75.1399  75.2689
    75.9993  80.9902  83.0519  84.3063  85.7774  89.1443  89.5661  89.8390
    94.8534  95.9059  98.4426 101.4005 102.2975 103.7175 105.6549 106.0256
   107.1335 108.5954 108.8554 110.6625 115.5676 115.7569 118.7146 119.5280
   120.6003 122.1185 122.3708 122.5556 126.9735 129.4522 130.0962 131.1134
   133.0463 133.7620 133.9037 134.7120 135.9920 137.3295 138.5559 139.0406
   141.5308 142.0211 145.1984 146.9759 147.5399 148.3376 150.9953 152.0459
   154.7295 154.8065 155.0312 156.9959 157.0543 159.5007 161.3891 161.7792
   162.5949 165.5030 167.0061 168.2783 170.2028 172.5237 173.7873 174.2162
   177.0385 178.0176 179.5828 180.0191

          k = 0.0000 0.7071 0.0000 (   894 PWs)   bands (ev):

   -39.3345 -18.4817  -2.6787  -0.6730  -0.6730  14.5610  16.3187  17.2356
    19.8615  19.8615  32.9442  37.9200  39.3732  41.0670  41.0670  43.2830
    43.5671  43.5671  48.6399  48.6399  52.7068  53.1182  57.6174  57.6174
    59.9622  60.4809  69.6669  71.4689  73.4032  73.4032  75.2823  77.8460
    77.8460  78.3214  78.6551  79.2379  85.2888  87.5905  87.5905  88.1800
    88.6885  98.6939  98.6939 100.3952 107.6267 107.6267 108.9887 110.9296
   112.4041 112.4041 112.7912 113.5872 115.6884 115.6884 117.9219 119.1457
   121.0340 122.6944 124.0227 124.0227 124.5158 124.5158 125.3140 125.4072
   128.1817 128.1817 131.7303 133.4345 139.6174 144.6317 146.0904 146.0904
   146.2325 147.0250 147.3030 147.3030 147.7434 148.0719 151.0889 151.5113
   151.5113 151.7067 151.7235 151.7235 154.3922 155.9044 157.9784 157.9784
   157.9930 157.9930 162.6471 162.6641 168.4114 168.4114 174.2346 175.0401
   179.3170 181.5772 182.4501 182.4501

          k =-0.1768 0.8839-0.1768 (   888 PWs)   bands (ev):

   -39.3426 -18.6184  -2.0365  -0.8406  -0.3052  12.7792  15.5994  18.4660
    19.2767  23.7164  32.5376  33.2515  36.3511  37.8788  38.0285  43.0167
    45.1776  49.1274  50.1666  51.7303  54.7278  55.9607  56.3687  58.8776
    61.2670  62.0516  67.1726  67.5217  69.7462  72.1307  75.1399  75.2689
    75.9993  80.9902  83.0519  84.3063  85.7774  89.1443  89.5661  89.8390
    94.8534  95.9059  98.4426 101.4005 102.2975 103.7175 105.6549 106.0256
   107.1335 108.5954 108.8554 110.6625 115.5676 115.7569 118.7146 119.5280
   120.6003 122.1185 122.3708 122.5556 126.9735 129.4522 130.0962 131.1134
   133.0463 133.7620 133.9037 134.7120 135.9920 137.3295 138.5559 139.0406
   141.5308 142.0211 145.1984 146.9759 147.5399 148.3376 150.9953 152.0459
   154.7295 154.8065 155.0312 156.9959 157.0543 159.5007 161.3891 161.7792
   162.5949 165.5030 167.0061 168.2783 170.2028 172.5237 173.7873 174.2162
   177.0385 178.0176 179.5828 180.0191

          k = 0.5303 0.5303 0.5303 (   896 PWs)   bands (ev):

   -39.3828 -18.9703  -1.0407   0.1936   0.1936  10.2061  17.6928  20.2412
    20.2412  26.6373  27.2127  27.2127  34.7880  34.7880  36.5632  39.7112
    45.3798  45.3798  47.9687  53.5280  53.5280  62.0033  66.1706  66.1706
    66.7465  67.6355  67.6355  70.2251  74.9073  76.3407  76.3407  78.6468
    81.3559  81.3559  82.8815  83.9865  84.6568  84.6568  89.2256  89.2256
    92.1730  92.1730  92.6512  94.7023  94.7023  94.7651 102.4671 104.7750
   104.7750 108.9187 109.3836 109.3836 110.3442 110.3442 111.3306 113.8444
   116.2849 116.2849 116.7918 120.5361 120.5361 120.5428 129.0993 129.0993
   130.0687 135.8368 138.2554 138.2554 142.7605 146.0055 146.0055 147.7534
   147.7534 150.0544 150.4040 150.4040 152.2406 155.5215 155.5215 159.1440
   159.2459 159.2459 161.8490 162.6572 163.8434 163.8434 166.9465 168.2849
   168.2849 169.0002 170.2182 170.2182 171.8424 174.8021 174.8021 174.9413
   176.4924 178.3010 178.3010 179.4789

          k = 0.3536 0.7071 0.3536 (   883 PWs)   bands (ev):

   -39.3517 -18.7234  -1.5261  -1.0049   0.0744  11.9143  15.5591  19.1674
    19.1714  28.6156  28.6557  28.7024  36.5293  36.6244  39.6704  42.5584
    46.5142  47.6548  48.9294  52.3275  52.7312  55.0929  57.8122  64.0851
    64.2874  65.1212  66.9463  67.8839  71.2977  72.1939  73.1380  76.1499
    78.4045  80.8667  82.2715  83.3042  85.2635  85.4692  88.8062  92.3962
    94.0881  97.2632  98.1356  98.6119 101.3888 104.3993 104.9465 105.5974
   105.7318 106.7993 108.2258 109.4105 112.7911 116.0894 116.3151 119.0585
   119.4612 119.5463 121.5322 124.0505 124.3478 127.6976 128.9658 132.4312
   133.2523 133.3911 136.1431 136.4822 137.5692 138.1660 138.6660 141.6866
   141.9238 142.3077 143.8577 146.3488 150.0277 150.6403 151.7244 153.8607
   155.1321 155.4399 157.9197 159.4683 160.9621 162.1073 162.3300 163.1958
   163.6164 163.9407 163.9979 166.3984 171.3823 172.1673 173.7170 176.2400
   176.9002 177.2262 179.5773 180.4895

          k = 0.1768 0.8839 0.1768 (   888 PWs)   bands (ev):

   -39.3426 -18.6184  -2.0365  -0.8406  -0.3052  12.7792  15.5994  18.4660
    19.2767  23.7164  32.5376  33.2515  36.3511  37.8788  38.0285  43.0167
    45.1776  49.1274  50.1666  51.7303  54.7278  55.9607  56.3687  58.8776
    61.2670  62.0516  67.1726  67.5217  69.7462  72.1307  75.1399  75.2689
    75.9993  80.9902  83.0519  84.3063  85.7774  89.1443  89.5661  89.8390
    94.8534  95.9059  98.4426 101.4005 102.2975 103.7175 105.6549 106.0256
   107.1335 108.5954 108.8554 110.6625 115.5676 115.7569 118.7146 119.5280
   120.6003 122.1185 122.3708 122.5556 126.9735 129.4522 130.0962 131.1134
   133.0463 133.7620 133.9037 134.7120 135.9920 137.3295 138.5559 139.0406
   141.5308 142.0211 145.1984 146.9759 147.5399 148.3376 150.9953 152.0459
   154.7295 154.8065 155.0312 156.9959 157.0543 159.5007 161.3891 161.7792
   162.5949 165.5030 167.0061 168.2783 170.2028 172.5237 173.7873 174.2162
   177.0385 178.0176 179.5828 180.0191

          k = 0.0000 1.0607 0.0000 (   881 PWs)   bands (ev):

   -39.3723 -18.8735  -1.1017  -0.1900  -0.1900  11.2579  18.5615  19.4532
    20.2722  20.2722  32.6106  32.6106  33.3513  34.3799  37.0344  42.7977
    43.0008  43.0008  49.8802  52.3845  55.3278  55.3278  64.0435  66.1650
    66.9679  66.9679  67.4701  73.1673  73.1673  73.4067  73.4295  80.9217
    84.0494  84.1321  84.1321  85.4185  85.4705  85.4705  88.5505  88.7610
    89.8406  89.8406  90.8677  90.9321  97.2614  97.2614 100.4985 102.8886
   106.2373 108.1687 108.3624 108.3624 109.4394 112.7520 114.1548 114.1548
   122.8014 123.5706 123.5706 124.5173 124.5173 127.0541 128.3834 128.5124
   134.9507 135.2406 135.2406 138.3098 139.2078 140.4216 140.4216 141.8861
   143.9705 144.6328 144.6328 145.8830 150.6774 150.6774 154.1022 155.9342
   156.5401 157.5994 157.5994 158.4390 162.1297 166.4786 166.4786 168.7748
   171.4484 172.8658 175.0852 175.0852 177.0354 177.0354 177.1920 177.3726
   177.6409 178.1934 178.1934 178.3330

          k =-0.1768-0.1768 0.1768 (   896 PWs)   bands (ev):

   -39.3828 -18.9703  -1.0407   0.1936   0.1936  10.2061  17.6928  20.2412
    20.2412  26.6373  27.2127  27.2127  34.7880  34.7880  36.5632  39.7112
    45.3798  45.3798  47.9687  53.5280  53.5280  62.0033  66.1706  66.1706
    66.7465  67.6355  67.6355  70.2251  74.9073  76.3407  76.3407  78.6468
    81.3559  81.3559  82.8815  83.9865  84.6568  84.6568  89.2256  89.2256
    92.1730  92.1730  92.6512  94.7023  94.7023  94.7651 102.4671 104.7750
   104.7750 108.9187 109.3836 109.3836 110.3442 110.3442 111.3306 113.8444
   116.2849 116.2849 116.7918 120.5361 120.5361 120.5428 129.0993 129.0993
   130.0687 135.8368 138.2554 138.2554 142.7605 146.0055 146.0055 147.7534
   147.7534 150.0544 150.4040 150.4040 152.2406 155.5215 155.5215 159.1440
   159.2459 159.2459 161.8490 162.6572 163.8434 163.8434 166.9465 168.2849
   168.2849 169.0002 170.2182 170.2182 171.8424 174.8021 174.8021 174.9413
   176.4924 178.3010 178.3010 179.4789

          k =-0.3536 0.0000 0.0000 (   881 PWs)   bands (ev):

   -39.3723 -18.8735  -1.1017  -0.1900  -0.1900  11.2579  18.5615  19.4532
    20.2722  20.2722  32.6106  32.6106  33.3513  34.3799  37.0344  42.7977
    43.0008  43.0008  49.8802  52.3845  55.3278  55.3278  64.0435  66.1650
    66.9679  66.9679  67.4701  73.1673  73.1673  73.4067  73.4295  80.9217
    84.0494  84.1321  84.1321  85.4185  85.4705  85.4705  88.5505  88.7610
    89.8406  89.8406  90.8677  90.9321  97.2614  97.2614 100.4985 102.8886
   106.2373 108.1687 108.3624 108.3624 109.4394 112.7520 114.1548 114.1548
   122.8014 123.5706 123.5706 124.5173 124.5173 127.0541 128.3834 128.5124
   134.9507 135.2406 135.2406 138.3098 139.2078 140.4216 140.4216 141.8861
   143.9705 144.6328 144.6328 145.8830 150.6774 150.6774 154.1022 155.9342
   156.5401 157.5994 157.5994 158.4390 162.1297 166.4786 166.4786 168.7748
   171.4484 172.8658 175.0852 175.0852 177.0354 177.0354 177.1920 177.3726
   177.6409 178.1934 178.1934 178.3330

          k =-0.5303 0.1768-0.1768 (   888 PWs)   bands (ev):

   -39.3426 -18.6184  -2.0365  -0.8406  -0.3052  12.7792  15.5994  18.4660
    19.2767  23.7164  32.5376  33.2515  36.3511  37.8788  38.0285  43.0167
    45.1776  49.1274  50.1666  51.7303  54.7278  55.9607  56.3687  58.8776
    61.2670  62.0516  67.1726  67.5217  69.7462  72.1307  75.1399  75.2689
    75.9993  80.9902  83.0519  84.3063  85.7774  89.1443  89.5661  89.8390
    94.8534  95.9059  98.4426 101.4005 102.2975 103.7175 105.6549 106.0256
   107.1335 108.5954 108.8554 110.6625 115.5676 115.7569 118.7146 119.5280
   120.6003 122.1185 122.3708 122.5556 126.9735 129.4522 130.0962 131.1134
   133.0463 133.7620 133.9037 134.7120 135.9920 137.3295 138.5559 139.0406
   141.5308 142.0211 145.1984 146.9759 147.5399 148.3376 150.9953 152.0459
   154.7295 154.8065 155.0312 156.9959 157.0543 159.5007 161.3891 161.7792
   162.5949 165.5030 167.0061 168.2783 170.2028 172.5237 173.7873 174.2162
   177.0385 178.0176 179.5828 180.0191

          k =-0.7071 0.3536-0.3536 (   883 PWs)   bands (ev):

   -39.3517 -18.7234  -1.5261  -1.0049   0.0744  11.9143  15.5591  19.1674
    19.1714  28.6156  28.6557  28.7024  36.5293  36.6244  39.6704  42.5584
    46.5142  47.6548  48.9294  52.3275  52.7312  55.0929  57.8122  64.0851
    64.2874  65.1212  66.9463  67.8839  71.2977  72.1939  73.1380  76.1499
    78.4045  80.8667  82.2715  83.3042  85.2635  85.4692  88.8062  92.3962
    94.0881  97.2632  98.1356  98.6119 101.3888 104.3993 104.9465 105.5974
   105.7318 106.7993 108.2258 109.4105 112.7911 116.0894 116.3151 119.0585
   119.4612 119.5463 121.5322 124.0505 124.3478 127.6976 128.9658 132.4312
   133.2523 133.3911 136.1431 136.4822 137.5692 138.1660 138.6660 141.6866
   141.9238 142.3077 143.8577 146.3488 150.0277 150.6403 151.7244 153.8607
   155.1321 155.4399 157.9197 159.4683 160.9621 162.1073 162.3300 163.1958
   163.6164 163.9407 163.9979 166.3984 171.3823 172.1673 173.7170 176.2400
   176.9002 177.2262 179.5773 180.4895

          k = 0.0000 0.0000 0.3536 (   881 PWs)   bands (ev):

   -39.3723 -18.8735  -1.1017  -0.1900  -0.1900  11.2579  18.5615  19.4532
    20.2722  20.2722  32.6106  32.6106  33.3513  34.3799  37.0344  42.7977
    43.0008  43.0008  49.8802  52.3845  55.3278  55.3278  64.0435  66.1650
    66.9679  66.9679  67.4701  73.1673  73.1673  73.4067  73.4295  80.9217
    84.0494  84.1321  84.1321  85.4185  85.4705  85.4705  88.5505  88.7610
    89.8406  89.8406  90.8677  90.9321  97.2614  97.2614 100.4985 102.8886
   106.2373 108.1687 108.3624 108.3624 109.4394 112.7520 114.1548 114.1548
   122.8014 123.5706 123.5706 124.5173 124.5173 127.0541 128.3834 128.5124
   134.9507 135.2406 135.2406 138.3098 139.2078 140.4216 140.4216 141.8861
   143.9705 144.6328 144.6328 145.8830 150.6774 150.6774 154.1022 155.9342
   156.5401 157.5994 157.5994 158.4390 162.1297 166.4786 166.4786 168.7748
   171.4484 172.8658 175.0852 175.0852 177.0354 177.0354 177.1920 177.3726
   177.6409 178.1934 178.1934 178.3330

          k =-0.1768 0.1768 0.1768 (   896 PWs)   bands (ev):

   -39.3828 -18.9703  -1.0407   0.1936   0.1936  10.2061  17.6928  20.2412
    20.2412  26.6373  27.2127  27.2127  34.7880  34.7880  36.5632  39.7112
    45.3798  45.3798  47.9687  53.5280  53.5280  62.0033  66.1706  66.1706
    66.7465  67.6355  67.6355  70.2251  74.9073  76.3407  76.3407  78.6468
    81.3559  81.3559  82.8815  83.9865  84.6568  84.6568  89.2256  89.2256
    92.1730  92.1730  92.6512  94.7023  94.7023  94.7651 102.4671 104.7750
   104.7750 108.9187 109.3836 109.3836 110.3442 110.3442 111.3306 113.8444
   116.2849 116.2849 116.7918 120.5361 120.5361 120.5428 129.0993 129.0993
   130.0687 135.8368 138.2554 138.2554 142.7605 146.0055 146.0055 147.7534
   147.7534 150.0544 150.4040 150.4040 152.2406 155.5215 155.5215 159.1440
   159.2459 159.2459 161.8490 162.6572 163.8434 163.8434 166.9465 168.2849
   168.2849 169.0002 170.2182 170.2182 171.8424 174.8021 174.8021 174.9413
   176.4924 178.3010 178.3010 179.4789

          k =-0.3536 0.3536 0.0000 (   883 PWs)   bands (ev):

   -39.3517 -18.7234  -1.5261  -1.0049   0.0744  11.9143  15.5591  19.1674
    19.1714  28.6156  28.6557  28.7024  36.5293  36.6244  39.6704  42.5584
    46.5142  47.6548  48.9294  52.3275  52.7312  55.0929  57.8122  64.0851
    64.2874  65.1212  66.9463  67.8839  71.2977  72.1939  73.1380  76.1499
    78.4045  80.8667  82.2715  83.3042  85.2635  85.4692  88.8062  92.3962
    94.0881  97.2632  98.1356  98.6119 101.3888 104.3993 104.9465 105.5974
   105.7318 106.7993 108.2258 109.4105 112.7911 116.0894 116.3151 119.0585
   119.4612 119.5463 121.5322 124.0505 124.3478 127.6976 128.9658 132.4312
   133.2523 133.3911 136.1431 136.4822 137.5692 138.1660 138.6660 141.6866
   141.9238 142.3077 143.8577 146.3488 150.0277 150.6403 151.7244 153.8607
   155.1321 155.4399 157.9197 159.4683 160.9621 162.1073 162.3300 163.1958
   163.6164 163.9407 163.9979 166.3984 171.3823 172.1673 173.7170 176.2400
   176.9002 177.2262 179.5773 180.4895

          k =-0.5303 0.5303-0.1768 (   888 PWs)   bands (ev):

   -39.3426 -18.6184  -2.0365  -0.8406  -0.3052  12.7792  15.5994  18.4660
    19.2767  23.7164  32.5376  33.2515  36.3511  37.8788  38.0285  43.0167
    45.1776  49.1274  50.1666  51.7303  54.7278  55.9607  56.3687  58.8776
    61.2670  62.0516  67.1726  67.5217  69.7462  72.1307  75.1399  75.2689
    75.9993  80.9902  83.0519  84.3063  85.7774  89.1443  89.5661  89.8390
    94.8534  95.9059  98.4426 101.4005 102.2975 103.7175 105.6549 106.0256
   107.1335 108.5954 108.8554 110.6625 115.5676 115.7569 118.7146 119.5280
   120.6003 122.1185 122.3708 122.5556 126.9735 129.4522 130.0962 131.1134
   133.0463 133.7620 133.9037 134.7120 135.9920 137.3295 138.5559 139.0406
   141.5308 142.0211 145.1984 146.9759 147.5399 148.3376 150.9953 152.0459
   154.7295 154.8065 155.0312 156.9959 157.0543 159.5007 161.3891 161.7792
   162.5949 165.5030 167.0061 168.2783 170.2028 172.5237 173.7873 174.2162
   177.0385 178.0176 179.5828 180.0191

          k = 0.1768 0.1768 0.5303 (   888 PWs)   bands (ev):

   -39.3426 -18.6184  -2.0365  -0.8406  -0.3052  12.7792  15.5994  18.4660
    19.2767  23.7164  32.5376  33.2515  36.3511  37.8788  38.0285  43.0167
    45.1776  49.1274  50.1666  51.7303  54.7278  55.9607  56.3687  58.8776
    61.2670  62.0516  67.1726  67.5217  69.7462  72.1307  75.1399  75.2689
    75.9993  80.9902  83.0519  84.3063  85.7774  89.1443  89.5661  89.8390
    94.8534  95.9059  98.4426 101.4005 102.2975 103.7175 105.6549 106.0256
   107.1335 108.5954 108.8554 110.6625 115.5676 115.7569 118.7146 119.5280
   120.6003 122.1185 122.3708 122.5556 126.9735 129.4522 130.0962 131.1134
   133.0463 133.7620 133.9037 134.7120 135.9920 137.3295 138.5559 139.0406
   141.5308 142.0211 145.1984 146.9759 147.5399 148.3376 150.9953 152.0459
   154.7295 154.8065 155.0312 156.9959 157.0543 159.5007 161.3891 161.7792
   162.5949 165.5030 167.0061 168.2783 170.2028 172.5237 173.7873 174.2162
   177.0385 178.0176 179.5828 180.0191

          k = 0.0000 0.3536 0.3536 (   883 PWs)   bands (ev):

   -39.3517 -18.7234  -1.5261  -1.0049   0.0744  11.9143  15.5591  19.1674
    19.1714  28.6156  28.6557  28.7024  36.5293  36.6244  39.6704  42.5584
    46.5142  47.6548  48.9294  52.3275  52.7312  55.0929  57.8122  64.0851
    64.2874  65.1212  66.9463  67.8839  71.2977  72.1939  73.1380  76.1499
    78.4045  80.8667  82.2715  83.3042  85.2635  85.4692  88.8062  92.3962
    94.0881  97.2632  98.1356  98.6119 101.3888 104.3993 104.9465 105.5974
   105.7318 106.7993 108.2258 109.4105 112.7911 116.0894 116.3151 119.0585
   119.4612 119.5463 121.5322 124.0505 124.3478 127.6976 128.9658 132.4312
   133.2523 133.3911 136.1431 136.4822 137.5692 138.1660 138.6660 141.6866
   141.9238 142.3077 143.8577 146.3488 150.0277 150.6403 151.7244 153.8607
   155.1321 155.4399 157.9197 159.4683 160.9621 162.1073 162.3300 163.1958
   163.6164 163.9407 163.9979 166.3984 171.3823 172.1673 173.7170 176.2400
   176.9002 177.2262 179.5773 180.4895

          k =-0.1768 0.5303 0.1768 (   888 PWs)   bands (ev):

   -39.3426 -18.6184  -2.0365  -0.8406  -0.3052  12.7792  15.5994  18.4660
    19.2767  23.7164  32.5376  33.2515  36.3511  37.8788  38.0285  43.0167
    45.1776  49.1274  50.1666  51.7303  54.7278  55.9607  56.3687  58.8776
    61.2670  62.0516  67.1726  67.5217  69.7462  72.1307  75.1399  75.2689
    75.9993  80.9902  83.0519  84.3063  85.7774  89.1443  89.5661  89.8390
    94.8534  95.9059  98.4426 101.4005 102.2975 103.7175 105.6549 106.0256
   107.1335 108.5954 108.8554 110.6625 115.5676 115.7569 118.7146 119.5280
   120.6003 122.1185 122.3708 122.5556 126.9735 129.4522 130.0962 131.1134
   133.0463 133.7620 133.9037 134.7120 135.9920 137.3295 138.5559 139.0406
   141.5308 142.0211 145.1984 146.9759 147.5399 148.3376 150.9953 152.0459
   154.7295 154.8065 155.0312 156.9959 157.0543 159.5007 161.3891 161.7792
   162.5949 165.5030 167.0061 168.2783 170.2028 172.5237 173.7873 174.2162
   177.0385 178.0176 179.5828 180.0191

          k =-0.3536 0.7071 0.0000 (   892 PWs)   bands (ev):

   -39.3339 -18.5096  -1.7515  -1.7515  -0.4693  14.8222  14.8222  17.1595
    18.9834  27.0725  27.0725  33.6009  37.5946  41.6688  41.6688  42.2481
    44.8138  50.1948  51.2207  51.2207  52.2823  55.6756  58.6496  58.6496
    62.1215  62.1215  62.2891  62.6684  67.8613  67.8613  68.6699  75.5892
    75.8256  83.0205  83.0205  86.7679  91.1237  93.6585  93.6585  94.7970
    96.8132  96.8132  98.0352  98.8854  99.8709 103.1170 103.1170 104.7043
   108.7863 109.5666 112.6962 112.7757 112.7757 114.2769 116.6007 116.6007
   122.7552 123.0757 123.0757 126.6178 129.8619 129.8619 130.4140 131.2687
   131.2687 131.5981 132.1177 133.2815 134.6518 136.9601 136.9601 140.1590
   143.5306 145.7120 145.7120 146.5369 152.0253 152.0253 152.5379 153.2512
   153.3593 153.3593 153.7770 153.9550 155.9742 161.0858 161.0858 163.6994
   164.9665 166.3954 166.3954 166.9270 166.9270 167.4476 168.0255 168.5931
   172.1303 172.1303 172.2322 172.2669

          k = 0.3536 0.3536 0.7071 (   883 PWs)   bands (ev):

   -39.3517 -18.7234  -1.5261  -1.0049   0.0744  11.9143  15.5591  19.1674
    19.1714  28.6156  28.6557  28.7024  36.5293  36.6244  39.6704  42.5584
    46.5142  47.6548  48.9294  52.3275  52.7312  55.0929  57.8122  64.0851
    64.2874  65.1212  66.9463  67.8839  71.2977  72.1939  73.1380  76.1499
    78.4045  80.8667  82.2715  83.3042  85.2635  85.4692  88.8062  92.3962
    94.0881  97.2632  98.1356  98.6119 101.3888 104.3993 104.9465 105.5974
   105.7318 106.7993 108.2258 109.4105 112.7911 116.0894 116.3151 119.0585
   119.4612 119.5463 121.5322 124.0505 124.3478 127.6976 128.9658 132.4312
   133.2523 133.3911 136.1431 136.4822 137.5692 138.1660 138.6660 141.6866
   141.9238 142.3077 143.8577 146.3488 150.0277 150.6403 151.7244 153.8607
   155.1321 155.4399 157.9197 159.4683 160.9621 162.1073 162.3300 163.1958
   163.6164 163.9407 163.9979 166.3984 171.3823 172.1673 173.7170 176.2400
   176.9002 177.2262 179.5773 180.4895

          k = 0.1768 0.5303 0.5303 (   888 PWs)   bands (ev):

   -39.3426 -18.6184  -2.0365  -0.8406  -0.3052  12.7792  15.5994  18.4660
    19.2767  23.7164  32.5376  33.2515  36.3511  37.8788  38.0285  43.0167
    45.1776  49.1274  50.1666  51.7303  54.7278  55.9607  56.3687  58.8776
    61.2670  62.0516  67.1726  67.5217  69.7462  72.1307  75.1399  75.2689
    75.9993  80.9902  83.0519  84.3063  85.7774  89.1443  89.5661  89.8390
    94.8534  95.9059  98.4426 101.4005 102.2975 103.7175 105.6549 106.0256
   107.1335 108.5954 108.8554 110.6625 115.5676 115.7569 118.7146 119.5280
   120.6003 122.1185 122.3708 122.5556 126.9735 129.4522 130.0962 131.1134
   133.0463 133.7620 133.9037 134.7120 135.9920 137.3295 138.5559 139.0406
   141.5308 142.0211 145.1984 146.9759 147.5399 148.3376 150.9953 152.0459
   154.7295 154.8065 155.0312 156.9959 157.0543 159.5007 161.3891 161.7792
   162.5949 165.5030 167.0061 168.2783 170.2028 172.5237 173.7873 174.2162
   177.0385 178.0176 179.5828 180.0191

          k = 0.0000 0.7071 0.3536 (   892 PWs)   bands (ev):

   -39.3339 -18.5096  -1.7515  -1.7515  -0.4693  14.8222  14.8222  17.1595
    18.9834  27.0725  27.0725  33.6009  37.5946  41.6688  41.6688  42.2481
    44.8138  50.1948  51.2207  51.2207  52.2823  55.6756  58.6496  58.6496
    62.1215  62.1215  62.2891  62.6684  67.8613  67.8613  68.6699  75.5892
    75.8256  83.0205  83.0205  86.7679  91.1237  93.6585  93.6585  94.7970
    96.8132  96.8132  98.0352  98.8854  99.8709 103.1170 103.1170 104.7043
   108.7863 109.5666 112.6962 112.7757 112.7757 114.2769 116.6007 116.6007
   122.7552 123.0757 123.0757 126.6178 129.8619 129.8619 130.4140 131.2687
   131.2687 131.5981 132.1177 133.2815 134.6518 136.9601 136.9601 140.1590
   143.5306 145.7120 145.7120 146.5369 152.0253 152.0253 152.5379 153.2512
   153.3593 153.3593 153.7770 153.9550 155.9742 161.0858 161.0858 163.6994
   164.9665 166.3954 166.3954 166.9270 166.9270 167.4476 168.0255 168.5931
   172.1303 172.1303 172.2322 172.2669

          k =-0.1768 0.8839 0.1768 (   888 PWs)   bands (ev):

   -39.3426 -18.6184  -2.0365  -0.8406  -0.3052  12.7792  15.5994  18.4660
    19.2767  23.7164  32.5376  33.2515  36.3511  37.8788  38.0285  43.0167
    45.1776  49.1274  50.1666  51.7303  54.7278  55.9607  56.3687  58.8776
    61.2670  62.0516  67.1726  67.5217  69.7462  72.1307  75.1399  75.2689
    75.9993  80.9902  83.0519  84.3063  85.7774  89.1443  89.5661  89.8390
    94.8534  95.9059  98.4426 101.4005 102.2975 103.7175 105.6549 106.0256
   107.1335 108.5954 108.8554 110.6625 115.5676 115.7569 118.7146 119.5280
   120.6003 122.1185 122.3708 122.5556 126.9735 129.4522 130.0962 131.1134
   133.0463 133.7620 133.9037 134.7120 135.9920 137.3295 138.5559 139.0406
   141.5308 142.0211 145.1984 146.9759 147.5399 148.3376 150.9953 152.0459
   154.7295 154.8065 155.0312 156.9959 157.0543 159.5007 161.3891 161.7792
   162.5949 165.5030 167.0061 168.2783 170.2028 172.5237 173.7873 174.2162
   177.0385 178.0176 179.5828 180.0191

          k =-0.3536-0.3536 0.3536 (   886 PWs)   bands (ev):

   -39.3507 -18.7498  -2.1750   0.0920   0.0920  10.6280  16.4703  18.6202
    18.6202  30.0610  30.5575  30.5575  33.1294  36.6440  36.6440  44.6604
    44.6604  46.7097  52.1304  52.3422  52.3422  54.7446  60.6692  60.6692
    65.0340  67.8443  70.1401  70.1401  71.1818  71.1818  74.6532  74.7102
    74.7102  74.8988  76.1432  86.2179  86.2179  89.6948  90.2162  90.2162
    91.4356  97.0083  98.6083  98.6083 102.4497 102.8215 102.8215 107.6403
   108.3390 108.3390 109.5529 109.5529 116.2559 119.3631 119.3631 121.2721
   122.8851 122.8851 123.9620 126.5369 126.5369 127.5407 127.5407 128.2299
   128.7389 128.7389 128.8660 128.8660 130.0388 130.1830 139.7671 141.9621
   142.4366 142.4366 147.6977 147.6977 148.0830 148.0830 148.8303 158.2716
   158.2716 159.0126 159.2441 161.7901 161.7901 162.6145 164.1149 165.1385
   165.1385 166.0102 169.3948 172.1359 172.1359 174.8351 174.9175 174.9175
   178.4675 178.4675 179.1501 180.0990

          k =-0.5303-0.1768 0.1768 (   888 PWs)   bands (ev):

   -39.3426 -18.6184  -2.0365  -0.8406  -0.3052  12.7792  15.5994  18.4660
    19.2767  23.7164  32.5376  33.2515  36.3511  37.8788  38.0285  43.0167
    45.1776  49.1274  50.1666  51.7303  54.7278  55.9607  56.3687  58.8776
    61.2670  62.0516  67.1726  67.5217  69.7462  72.1307  75.1399  75.2689
    75.9993  80.9902  83.0519  84.3063  85.7774  89.1443  89.5661  89.8390
    94.8534  95.9059  98.4426 101.4005 102.2975 103.7175 105.6549 106.0256
   107.1335 108.5954 108.8554 110.6625 115.5676 115.7569 118.7146 119.5280
   120.6003 122.1185 122.3708 122.5556 126.9735 129.4522 130.0962 131.1134
   133.0463 133.7620 133.9037 134.7120 135.9920 137.3295 138.5559 139.0406
   141.5308 142.0211 145.1984 146.9759 147.5399 148.3376 150.9953 152.0459
   154.7295 154.8065 155.0312 156.9959 157.0543 159.5007 161.3891 161.7792
   162.5949 165.5030 167.0061 168.2783 170.2028 172.5237 173.7873 174.2162
   177.0385 178.0176 179.5828 180.0191

          k =-0.7071 0.0000 0.0000 (   894 PWs)   bands (ev):

   -39.3345 -18.4817  -2.6787  -0.6730  -0.6730  14.5610  16.3187  17.2356
    19.8615  19.8615  32.9442  37.9200  39.3732  41.0670  41.0670  43.2830
    43.5671  43.5671  48.6399  48.6399  52.7068  53.1182  57.6174  57.6174
    59.9622  60.4809  69.6669  71.4689  73.4032  73.4032  75.2823  77.8460
    77.8460  78.3214  78.6551  79.2379  85.2888  87.5905  87.5905  88.1800
    88.6885  98.6939  98.6939 100.3952 107.6267 107.6267 108.9887 110.9296
   112.4041 112.4041 112.7912 113.5872 115.6884 115.6884 117.9219 119.1457
   121.0340 122.6944 124.0227 124.0227 124.5158 124.5158 125.3140 125.4072
   128.1817 128.1817 131.7303 133.4345 139.6174 144.6317 146.0904 146.0904
   146.2325 147.0250 147.3030 147.3030 147.7434 148.0719 151.0889 151.5113
   151.5113 151.7067 151.7235 151.7235 154.3922 155.9044 157.9784 157.9784
   157.9930 157.9930 162.6471 162.6641 168.4114 168.4114 174.2346 175.0401
   179.3170 181.5772 182.4501 182.4501

          k =-0.8839 0.1768-0.1768 (   888 PWs)   bands (ev):

   -39.3426 -18.6184  -2.0365  -0.8406  -0.3052  12.7792  15.5994  18.4660
    19.2767  23.7164  32.5376  33.2515  36.3511  37.8788  38.0285  43.0167
    45.1776  49.1274  50.1666  51.7303  54.7278  55.9607  56.3687  58.8776
    61.2670  62.0516  67.1726  67.5217  69.7462  72.1307  75.1399  75.2689
    75.9993  80.9902  83.0519  84.3063  85.7774  89.1443  89.5661  89.8390
    94.8534  95.9059  98.4426 101.4005 102.2975 103.7175 105.6549 106.0256
   107.1335 108.5954 108.8554 110.6625 115.5676 115.7569 118.7146 119.5280
   120.6003 122.1185 122.3708 122.5556 126.9735 129.4522 130.0962 131.1134
   133.0463 133.7620 133.9037 134.7120 135.9920 137.3295 138.5559 139.0406
   141.5308 142.0211 145.1984 146.9759 147.5399 148.3376 150.9953 152.0459
   154.7295 154.8065 155.0312 156.9959 157.0543 159.5007 161.3891 161.7792
   162.5949 165.5030 167.0061 168.2783 170.2028 172.5237 173.7873 174.2162
   177.0385 178.0176 179.5828 180.0191

          k =-0.1768-0.1768 0.5303 (   888 PWs)   bands (ev):

   -39.3426 -18.6184  -2.0365  -0.8406  -0.3052  12.7792  15.5994  18.4660
    19.2767  23.7164  32.5376  33.2515  36.3511  37.8788  38.0285  43.0167
    45.1776  49.1274  50.1666  51.7303  54.7278  55.9607  56.3687  58.8776
    61.2670  62.0516  67.1726  67.5217  69.7462  72.1307  75.1399  75.2689
    75.9993  80.9902  83.0519  84.3063  85.7774  89.1443  89.5661  89.8390
    94.8534  95.9059  98.4426 101.4005 102.2975 103.7175 105.6549 106.0256
   107.1335 108.5954 108.8554 110.6625 115.5676 115.7569 118.7146 119.5280
   120.6003 122.1185 122.3708 122.5556 126.9735 129.4522 130.0962 131.1134
   133.0463 133.7620 133.9037 134.7120 135.9920 137.3295 138.5559 139.0406
   141.5308 142.0211 145.1984 146.9759 147.5399 148.3376 150.9953 152.0459
   154.7295 154.8065 155.0312 156.9959 157.0543 159.5007 161.3891 161.7792
   162.5949 165.5030 167.0061 168.2783 170.2028 172.5237 173.7873 174.2162
   177.0385 178.0176 179.5828 180.0191

          k =-0.3536 0.0000 0.3536 (   883 PWs)   bands (ev):

   -39.3517 -18.7234  -1.5261  -1.0049   0.0744  11.9143  15.5591  19.1674
    19.1714  28.6156  28.6557  28.7024  36.5293  36.6244  39.6704  42.5584
    46.5142  47.6548  48.9294  52.3275  52.7312  55.0929  57.8122  64.0851
    64.2874  65.1212  66.9463  67.8839  71.2977  72.1939  73.1380  76.1499
    78.4045  80.8667  82.2715  83.3042  85.2635  85.4692  88.8062  92.3962
    94.0881  97.2632  98.1356  98.6119 101.3888 104.3993 104.9465 105.5974
   105.7318 106.7993 108.2258 109.4105 112.7911 116.0894 116.3151 119.0585
   119.4612 119.5463 121.5322 124.0505 124.3478 127.6976 128.9658 132.4312
   133.2523 133.3911 136.1431 136.4822 137.5692 138.1660 138.6660 141.6866
   141.9238 142.3077 143.8577 146.3488 150.0277 150.6403 151.7244 153.8607
   155.1321 155.4399 157.9197 159.4683 160.9621 162.1073 162.3300 163.1958
   163.6164 163.9407 163.9979 166.3984 171.3823 172.1673 173.7170 176.2400
   176.9002 177.2262 179.5773 180.4895

          k =-0.5303 0.1768 0.1768 (   888 PWs)   bands (ev):

   -39.3426 -18.6184  -2.0365  -0.8406  -0.3052  12.7792  15.5994  18.4660
    19.2767  23.7164  32.5376  33.2515  36.3511  37.8788  38.0285  43.0167
    45.1776  49.1274  50.1666  51.7303  54.7278  55.9607  56.3687  58.8776
    61.2670  62.0516  67.1726  67.5217  69.7462  72.1307  75.1399  75.2689
    75.9993  80.9902  83.0519  84.3063  85.7774  89.1443  89.5661  89.8390
    94.8534  95.9059  98.4426 101.4005 102.2975 103.7175 105.6549 106.0256
   107.1335 108.5954 108.8554 110.6625 115.5676 115.7569 118.7146 119.5280
   120.6003 122.1185 122.3708 122.5556 126.9735 129.4522 130.0962 131.1134
   133.0463 133.7620 133.9037 134.7120 135.9920 137.3295 138.5559 139.0406
   141.5308 142.0211 145.1984 146.9759 147.5399 148.3376 150.9953 152.0459
   154.7295 154.8065 155.0312 156.9959 157.0543 159.5007 161.3891 161.7792
   162.5949 165.5030 167.0061 168.2783 170.2028 172.5237 173.7873 174.2162
   177.0385 178.0176 179.5828 180.0191

          k =-0.7071 0.3536 0.0000 (   892 PWs)   bands (ev):

   -39.3339 -18.5096  -1.7515  -1.7515  -0.4693  14.8222  14.8222  17.1595
    18.9834  27.0725  27.0725  33.6009  37.5946  41.6688  41.6688  42.2481
    44.8138  50.1948  51.2207  51.2207  52.2823  55.6756  58.6496  58.6496
    62.1215  62.1215  62.2891  62.6684  67.8613  67.8613  68.6699  75.5892
    75.8256  83.0205  83.0205  86.7679  91.1237  93.6585  93.6585  94.7970
    96.8132  96.8132  98.0352  98.8854  99.8709 103.1170 103.1170 104.7043
   108.7863 109.5666 112.6962 112.7757 112.7757 114.2769 116.6007 116.6007
   122.7552 123.0757 123.0757 126.6178 129.8619 129.8619 130.4140 131.2687
   131.2687 131.5981 132.1177 133.2815 134.6518 136.9601 136.9601 140.1590
   143.5306 145.7120 145.7120 146.5369 152.0253 152.0253 152.5379 153.2512
   153.3593 153.3593 153.7770 153.9550 155.9742 161.0858 161.0858 163.6994
   164.9665 166.3954 166.3954 166.9270 166.9270 167.4476 168.0255 168.5931
   172.1303 172.1303 172.2322 172.2669

          k = 0.0000 0.0000 0.7071 (   894 PWs)   bands (ev):

   -39.3345 -18.4817  -2.6787  -0.6730  -0.6730  14.5610  16.3187  17.2356
    19.8615  19.8615  32.9442  37.9200  39.3732  41.0670  41.0670  43.2830
    43.5671  43.5671  48.6399  48.6399  52.7068  53.1182  57.6174  57.6174
    59.9622  60.4809  69.6669  71.4689  73.4032  73.4032  75.2823  77.8460
    77.8460  78.3214  78.6551  79.2379  85.2888  87.5905  87.5905  88.1800
    88.6885  98.6939  98.6939 100.3952 107.6267 107.6267 108.9887 110.9296
   112.4041 112.4041 112.7912 113.5872 115.6884 115.6884 117.9219 119.1457
   121.0340 122.6944 124.0227 124.0227 124.5158 124.5158 125.3140 125.4072
   128.1817 128.1817 131.7303 133.4345 139.6174 144.6317 146.0904 146.0904
   146.2325 147.0250 147.3030 147.3030 147.7434 148.0719 151.0889 151.5113
   151.5113 151.7067 151.7235 151.7235 154.3922 155.9044 157.9784 157.9784
   157.9930 157.9930 162.6471 162.6641 168.4114 168.4114 174.2346 175.0401
   179.3170 181.5772 182.4501 182.4501

          k =-0.1768 0.1768 0.5303 (   888 PWs)   bands (ev):

   -39.3426 -18.6184  -2.0365  -0.8406  -0.3052  12.7792  15.5994  18.4660
    19.2767  23.7164  32.5376  33.2515  36.3511  37.8788  38.0285  43.0167
    45.1776  49.1274  50.1666  51.7303  54.7278  55.9607  56.3687  58.8776
    61.2670  62.0516  67.1726  67.5217  69.7462  72.1307  75.1399  75.2689
    75.9993  80.9902  83.0519  84.3063  85.7774  89.1443  89.5661  89.8390
    94.8534  95.9059  98.4426 101.4005 102.2975 103.7175 105.6549 106.0256
   107.1335 108.5954 108.8554 110.6625 115.5676 115.7569 118.7146 119.5280
   120.6003 122.1185 122.3708 122.5556 126.9735 129.4522 130.0962 131.1134
   133.0463 133.7620 133.9037 134.7120 135.9920 137.3295 138.5559 139.0406
   141.5308 142.0211 145.1984 146.9759 147.5399 148.3376 150.9953 152.0459
   154.7295 154.8065 155.0312 156.9959 157.0543 159.5007 161.3891 161.7792
   162.5949 165.5030 167.0061 168.2783 170.2028 172.5237 173.7873 174.2162
   177.0385 178.0176 179.5828 180.0191

          k =-0.3536 0.3536 0.3536 (   886 PWs)   bands (ev):

   -39.3507 -18.7498  -2.1750   0.0920   0.0920  10.6280  16.4703  18.6202
    18.6202  30.0610  30.5575  30.5575  33.1294  36.6440  36.6440  44.6604
    44.6604  46.7097  52.1304  52.3422  52.3422  54.7446  60.6692  60.6692
    65.0340  67.8443  70.1401  70.1401  71.1818  71.1818  74.6532  74.7102
    74.7102  74.8988  76.1432  86.2179  86.2179  89.6948  90.2162  90.2162
    91.4356  97.0083  98.6083  98.6083 102.4497 102.8215 102.8215 107.6403
   108.3390 108.3390 109.5529 109.5529 116.2559 119.3631 119.3631 121.2721
   122.8851 122.8851 123.9620 126.5369 126.5369 127.5407 127.5407 128.2299
   128.7389 128.7389 128.8660 128.8660 130.0388 130.1830 139.7671 141.9621
   142.4366 142.4366 147.6977 147.6977 148.0830 148.0830 148.8303 158.2716
   158.2716 159.0126 159.2441 161.7901 161.7901 162.6145 164.1149 165.1385
   165.1385 166.0102 169.3948 172.1359 172.1359 174.8351 174.9175 174.9175
   178.4675 178.4675 179.1501 180.0990

          k =-0.5303 0.5303 0.1768 (   888 PWs)   bands (ev):

   -39.3426 -18.6184  -2.0365  -0.8406  -0.3052  12.7792  15.5994  18.4660
    19.2767  23.7164  32.5376  33.2515  36.3511  37.8788  38.0285  43.0167
    45.1776  49.1274  50.1666  51.7303  54.7278  55.9607  56.3687  58.8776
    61.2670  62.0516  67.1726  67.5217  69.7462  72.1307  75.1399  75.2689
    75.9993  80.9902  83.0519  84.3063  85.7774  89.1443  89.5661  89.8390
    94.8534  95.9059  98.4426 101.4005 102.2975 103.7175 105.6549 106.0256
   107.1335 108.5954 108.8554 110.6625 115.5676 115.7569 118.7146 119.5280
   120.6003 122.1185 122.3708 122.5556 126.9735 129.4522 130.0962 131.1134
   133.0463 133.7620 133.9037 134.7120 135.9920 137.3295 138.5559 139.0406
   141.5308 142.0211 145.1984 146.9759 147.5399 148.3376 150.9953 152.0459
   154.7295 154.8065 155.0312 156.9959 157.0543 159.5007 161.3891 161.7792
   162.5949 165.5030 167.0061 168.2783 170.2028 172.5237 173.7873 174.2162
   177.0385 178.0176 179.5828 180.0191

          k = 0.1768 0.1768 0.8839 (   888 PWs)   bands (ev):

   -39.3426 -18.6184  -2.0365  -0.8406  -0.3052  12.7792  15.5994  18.4660
    19.2767  23.7164  32.5376  33.2515  36.3511  37.8788  38.0285  43.0167
    45.1776  49.1274  50.1666  51.7303  54.7278  55.9607  56.3687  58.8776
    61.2670  62.0516  67.1726  67.5217  69.7462  72.1307  75.1399  75.2689
    75.9993  80.9902  83.0519  84.3063  85.7774  89.1443  89.5661  89.8390
    94.8534  95.9059  98.4426 101.4005 102.2975 103.7175 105.6549 106.0256
   107.1335 108.5954 108.8554 110.6625 115.5676 115.7569 118.7146 119.5280
   120.6003 122.1185 122.3708 122.5556 126.9735 129.4522 130.0962 131.1134
   133.0463 133.7620 133.9037 134.7120 135.9920 137.3295 138.5559 139.0406
   141.5308 142.0211 145.1984 146.9759 147.5399 148.3376 150.9953 152.0459
   154.7295 154.8065 155.0312 156.9959 157.0543 159.5007 161.3891 161.7792
   162.5949 165.5030 167.0061 168.2783 170.2028 172.5237 173.7873 174.2162
   177.0385 178.0176 179.5828 180.0191

          k = 0.0000 0.3536 0.7071 (   892 PWs)   bands (ev):

   -39.3339 -18.5096  -1.7515  -1.7515  -0.4693  14.8222  14.8222  17.1595
    18.9834  27.0725  27.0725  33.6009  37.5946  41.6688  41.6688  42.2481
    44.8138  50.1948  51.2207  51.2207  52.2823  55.6756  58.6496  58.6496
    62.1215  62.1215  62.2891  62.6684  67.8613  67.8613  68.6699  75.5892
    75.8256  83.0205  83.0205  86.7679  91.1237  93.6585  93.6585  94.7970
    96.8132  96.8132  98.0352  98.8854  99.8709 103.1170 103.1170 104.7043
   108.7863 109.5666 112.6962 112.7757 112.7757 114.2769 116.6007 116.6007
   122.7552 123.0757 123.0757 126.6178 129.8619 129.8619 130.4140 131.2687
   131.2687 131.5981 132.1177 133.2815 134.6518 136.9601 136.9601 140.1590
   143.5306 145.7120 145.7120 146.5369 152.0253 152.0253 152.5379 153.2512
   153.3593 153.3593 153.7770 153.9550 155.9742 161.0858 161.0858 163.6994
   164.9665 166.3954 166.3954 166.9270 166.9270 167.4476 168.0255 168.5931
   172.1303 172.1303 172.2322 172.2669

          k =-0.1768 0.5303 0.5303 (   888 PWs)   bands (ev):

   -39.3426 -18.6184  -2.0365  -0.8406  -0.3052  12.7792  15.5994  18.4660
    19.2767  23.7164  32.5376  33.2515  36.3511  37.8788  38.0285  43.0167
    45.1776  49.1274  50.1666  51.7303  54.7278  55.9607  56.3687  58.8776
    61.2670  62.0516  67.1726  67.5217  69.7462  72.1307  75.1399  75.2689
    75.9993  80.9902  83.0519  84.3063  85.7774  89.1443  89.5661  89.8390
    94.8534  95.9059  98.4426 101.4005 102.2975 103.7175 105.6549 106.0256
   107.1335 108.5954 108.8554 110.6625 115.5676 115.7569 118.7146 119.5280
   120.6003 122.1185 122.3708 122.5556 126.9735 129.4522 130.0962 131.1134
   133.0463 133.7620 133.9037 134.7120 135.9920 137.3295 138.5559 139.0406
   141.5308 142.0211 145.1984 146.9759 147.5399 148.3376 150.9953 152.0459
   154.7295 154.8065 155.0312 156.9959 157.0543 159.5007 161.3891 161.7792
   162.5949 165.5030 167.0061 168.2783 170.2028 172.5237 173.7873 174.2162
   177.0385 178.0176 179.5828 180.0191

          k =-0.3536 0.7071 0.3536 (   883 PWs)   bands (ev):

   -39.3517 -18.7234  -1.5261  -1.0049   0.0744  11.9143  15.5591  19.1674
    19.1714  28.6156  28.6557  28.7024  36.5293  36.6244  39.6704  42.5584
    46.5142  47.6548  48.9294  52.3275  52.7312  55.0929  57.8122  64.0851
    64.2874  65.1212  66.9463  67.8839  71.2977  72.1939  73.1380  76.1499
    78.4045  80.8667  82.2715  83.3042  85.2635  85.4692  88.8062  92.3962
    94.0881  97.2632  98.1356  98.6119 101.3888 104.3993 104.9465 105.5974
   105.7318 106.7993 108.2258 109.4105 112.7911 116.0894 116.3151 119.0585
   119.4612 119.5463 121.5322 124.0505 124.3478 127.6976 128.9658 132.4312
   133.2523 133.3911 136.1431 136.4822 137.5692 138.1660 138.6660 141.6866
   141.9238 142.3077 143.8577 146.3488 150.0277 150.6403 151.7244 153.8607
   155.1321 155.4399 157.9197 159.4683 160.9621 162.1073 162.3300 163.1958
   163.6164 163.9407 163.9979 166.3984 171.3823 172.1673 173.7170 176.2400
   176.9002 177.2262 179.5773 180.4895

          k =-0.5303-0.5303 0.5303 (   896 PWs)   bands (ev):

   -39.3828 -18.9703  -1.0407   0.1936   0.1936  10.2061  17.6928  20.2412
    20.2412  26.6373  27.2127  27.2127  34.7880  34.7880  36.5632  39.7112
    45.3798  45.3798  47.9687  53.5280  53.5280  62.0033  66.1706  66.1706
    66.7465  67.6355  67.6355  70.2251  74.9073  76.3407  76.3407  78.6468
    81.3559  81.3559  82.8815  83.9865  84.6568  84.6568  89.2256  89.2256
    92.1730  92.1730  92.6512  94.7023  94.7023  94.7651 102.4671 104.7750
   104.7750 108.9187 109.3836 109.3836 110.3442 110.3442 111.3306 113.8444
   116.2849 116.2849 116.7918 120.5361 120.5361 120.5428 129.0993 129.0993
   130.0687 135.8368 138.2554 138.2554 142.7605 146.0055 146.0055 147.7534
   147.7534 150.0544 150.4040 150.4040 152.2406 155.5215 155.5215 159.1440
   159.2459 159.2459 161.8490 162.6572 163.8434 163.8434 166.9465 168.2849
   168.2849 169.0002 170.2182 170.2182 171.8424 174.8021 174.8021 174.9413
   176.4924 178.3010 178.3010 179.4789

          k =-0.7071-0.3536 0.3536 (   883 PWs)   bands (ev):

   -39.3517 -18.7234  -1.5261  -1.0049   0.0744  11.9143  15.5591  19.1674
    19.1714  28.6156  28.6557  28.7024  36.5293  36.6244  39.6704  42.5584
    46.5142  47.6548  48.9294  52.3275  52.7312  55.0929  57.8122  64.0851
    64.2874  65.1212  66.9463  67.8839  71.2977  72.1939  73.1380  76.1499
    78.4045  80.8667  82.2715  83.3042  85.2635  85.4692  88.8062  92.3962
    94.0881  97.2632  98.1356  98.6119 101.3888 104.3993 104.9465 105.5974
   105.7318 106.7993 108.2258 109.4105 112.7911 116.0894 116.3151 119.0585
   119.4612 119.5463 121.5322 124.0505 124.3478 127.6976 128.9658 132.4312
   133.2523 133.3911 136.1431 136.4822 137.5692 138.1660 138.6660 141.6866
   141.9238 142.3077 143.8577 146.3488 150.0277 150.6403 151.7244 153.8607
   155.1321 155.4399 157.9197 159.4683 160.9621 162.1073 162.3300 163.1958
   163.6164 163.9407 163.9979 166.3984 171.3823 172.1673 173.7170 176.2400
   176.9002 177.2262 179.5773 180.4895

          k =-0.8839-0.1768 0.1768 (   888 PWs)   bands (ev):

   -39.3426 -18.6184  -2.0365  -0.8406  -0.3052  12.7792  15.5994  18.4660
    19.2767  23.7164  32.5376  33.2515  36.3511  37.8788  38.0285  43.0167
    45.1776  49.1274  50.1666  51.7303  54.7278  55.9607  56.3687  58.8776
    61.2670  62.0516  67.1726  67.5217  69.7462  72.1307  75.1399  75.2689
    75.9993  80.9902  83.0519  84.3063  85.7774  89.1443  89.5661  89.8390
    94.8534  95.9059  98.4426 101.4005 102.2975 103.7175 105.6549 106.0256
   107.1335 108.5954 108.8554 110.6625 115.5676 115.7569 118.7146 119.5280
   120.6003 122.1185 122.3708 122.5556 126.9735 129.4522 130.0962 131.1134
   133.0463 133.7620 133.9037 134.7120 135.9920 137.3295 138.5559 139.0406
   141.5308 142.0211 145.1984 146.9759 147.5399 148.3376 150.9953 152.0459
   154.7295 154.8065 155.0312 156.9959 157.0543 159.5007 161.3891 161.7792
   162.5949 165.5030 167.0061 168.2783 170.2028 172.5237 173.7873 174.2162
   177.0385 178.0176 179.5828 180.0191

          k =-1.0607 0.0000 0.0000 (   881 PWs)   bands (ev):

   -39.3723 -18.8735  -1.1017  -0.1900  -0.1900  11.2579  18.5615  19.4532
    20.2722  20.2722  32.6106  32.6106  33.3513  34.3799  37.0344  42.7977
    43.0008  43.0008  49.8802  52.3845  55.3278  55.3278  64.0435  66.1650
    66.9679  66.9679  67.4701  73.1673  73.1673  73.4067  73.4295  80.9217
    84.0494  84.1321  84.1321  85.4185  85.4705  85.4705  88.5505  88.7610
    89.8406  89.8406  90.8677  90.9321  97.2614  97.2614 100.4985 102.8886
   106.2373 108.1687 108.3624 108.3624 109.4394 112.7520 114.1548 114.1548
   122.8014 123.5706 123.5706 124.5173 124.5173 127.0541 128.3834 128.5124
   134.9507 135.2406 135.2406 138.3098 139.2078 140.4216 140.4216 141.8861
   143.9705 144.6328 144.6328 145.8830 150.6774 150.6774 154.1022 155.9342
   156.5401 157.5994 157.5994 158.4390 162.1297 166.4786 166.4786 168.7748
   171.4484 172.8658 175.0852 175.0852 177.0354 177.0354 177.1920 177.3726
   177.6409 178.1934 178.1934 178.3330

          k =-0.3536-0.3536 0.7071 (   883 PWs)   bands (ev):

   -39.3517 -18.7234  -1.5261  -1.0049   0.0744  11.9143  15.5591  19.1674
    19.1714  28.6156  28.6557  28.7024  36.5293  36.6244  39.6704  42.5584
    46.5142  47.6548  48.9294  52.3275  52.7312  55.0929  57.8122  64.0851
    64.2874  65.1212  66.9463  67.8839  71.2977  72.1939  73.1380  76.1499
    78.4045  80.8667  82.2715  83.3042  85.2635  85.4692  88.8062  92.3962
    94.0881  97.2632  98.1356  98.6119 101.3888 104.3993 104.9465 105.5974
   105.7318 106.7993 108.2258 109.4105 112.7911 116.0894 116.3151 119.0585
   119.4612 119.5463 121.5322 124.0505 124.3478 127.6976 128.9658 132.4312
   133.2523 133.3911 136.1431 136.4822 137.5692 138.1660 138.6660 141.6866
   141.9238 142.3077 143.8577 146.3488 150.0277 150.6403 151.7244 153.8607
   155.1321 155.4399 157.9197 159.4683 160.9621 162.1073 162.3300 163.1958
   163.6164 163.9407 163.9979 166.3984 171.3823 172.1673 173.7170 176.2400
   176.9002 177.2262 179.5773 180.4895

          k =-0.5303-0.1768 0.5303 (   888 PWs)   bands (ev):

   -39.3426 -18.6184  -2.0365  -0.8406  -0.3052  12.7792  15.5994  18.4660
    19.2767  23.7164  32.5376  33.2515  36.3511  37.8788  38.0285  43.0167
    45.1776  49.1274  50.1666  51.7303  54.7278  55.9607  56.3687  58.8776
    61.2670  62.0516  67.1726  67.5217  69.7462  72.1307  75.1399  75.2689
    75.9993  80.9902  83.0519  84.3063  85.7774  89.1443  89.5661  89.8390
    94.8534  95.9059  98.4426 101.4005 102.2975 103.7175 105.6549 106.0256
   107.1335 108.5954 108.8554 110.6625 115.5676 115.7569 118.7146 119.5280
   120.6003 122.1185 122.3708 122.5556 126.9735 129.4522 130.0962 131.1134
   133.0463 133.7620 133.9037 134.7120 135.9920 137.3295 138.5559 139.0406
   141.5308 142.0211 145.1984 146.9759 147.5399 148.3376 150.9953 152.0459
   154.7295 154.8065 155.0312 156.9959 157.0543 159.5007 161.3891 161.7792
   162.5949 165.5030 167.0061 168.2783 170.2028 172.5237 173.7873 174.2162
   177.0385 178.0176 179.5828 180.0191

          k =-0.7071 0.0000 0.3536 (   892 PWs)   bands (ev):

   -39.3339 -18.5096  -1.7515  -1.7515  -0.4693  14.8222  14.8222  17.1595
    18.9834  27.0725  27.0725  33.6009  37.5946  41.6688  41.6688  42.2481
    44.8138  50.1948  51.2207  51.2207  52.2823  55.6756  58.6496  58.6496
    62.1215  62.1215  62.2891  62.6684  67.8613  67.8613  68.6699  75.5892
    75.8256  83.0205  83.0205  86.7679  91.1237  93.6585  93.6585  94.7970
    96.8132  96.8132  98.0352  98.8854  99.8709 103.1170 103.1170 104.7043
   108.7863 109.5666 112.6962 112.7757 112.7757 114.2769 116.6007 116.6007
   122.7552 123.0757 123.0757 126.6178 129.8619 129.8619 130.4140 131.2687
   131.2687 131.5981 132.1177 133.2815 134.6518 136.9601 136.9601 140.1590
   143.5306 145.7120 145.7120 146.5369 152.0253 152.0253 152.5379 153.2512
   153.3593 153.3593 153.7770 153.9550 155.9742 161.0858 161.0858 163.6994
   164.9665 166.3954 166.3954 166.9270 166.9270 167.4476 168.0255 168.5931
   172.1303 172.1303 172.2322 172.2669

          k =-0.8839 0.1768 0.1768 (   888 PWs)   bands (ev):

   -39.3426 -18.6184  -2.0365  -0.8406  -0.3052  12.7792  15.5994  18.4660
    19.2767  23.7164  32.5376  33.2515  36.3511  37.8788  38.0285  43.0167
    45.1776  49.1274  50.1666  51.7303  54.7278  55.9607  56.3687  58.8776
    61.2670  62.0516  67.1726  67.5217  69.7462  72.1307  75.1399  75.2689
    75.9993  80.9902  83.0519  84.3063  85.7774  89.1443  89.5661  89.8390
    94.8534  95.9059  98.4426 101.4005 102.2975 103.7175 105.6549 106.0256
   107.1335 108.5954 108.8554 110.6625 115.5676 115.7569 118.7146 119.5280
   120.6003 122.1185 122.3708 122.5556 126.9735 129.4522 130.0962 131.1134
   133.0463 133.7620 133.9037 134.7120 135.9920 137.3295 138.5559 139.0406
   141.5308 142.0211 145.1984 146.9759 147.5399 148.3376 150.9953 152.0459
   154.7295 154.8065 155.0312 156.9959 157.0543 159.5007 161.3891 161.7792
   162.5949 165.5030 167.0061 168.2783 170.2028 172.5237 173.7873 174.2162
   177.0385 178.0176 179.5828 180.0191

          k =-0.1768-0.1768 0.8839 (   888 PWs)   bands (ev):

   -39.3426 -18.6184  -2.0365  -0.8406  -0.3052  12.7792  15.5994  18.4660
    19.2767  23.7164  32.5376  33.2515  36.3511  37.8788  38.0285  43.0167
    45.1776  49.1274  50.1666  51.7303  54.7278  55.9607  56.3687  58.8776
    61.2670  62.0516  67.1726  67.5217  69.7462  72.1307  75.1399  75.2689
    75.9993  80.9902  83.0519  84.3063  85.7774  89.1443  89.5661  89.8390
    94.8534  95.9059  98.4426 101.4005 102.2975 103.7175 105.6549 106.0256
   107.1335 108.5954 108.8554 110.6625 115.5676 115.7569 118.7146 119.5280
   120.6003 122.1185 122.3708 122.5556 126.9735 129.4522 130.0962 131.1134
   133.0463 133.7620 133.9037 134.7120 135.9920 137.3295 138.5559 139.0406
   141.5308 142.0211 145.1984 146.9759 147.5399 148.3376 150.9953 152.0459
   154.7295 154.8065 155.0312 156.9959 157.0543 159.5007 161.3891 161.7792
   162.5949 165.5030 167.0061 168.2783 170.2028 172.5237 173.7873 174.2162
   177.0385 178.0176 179.5828 180.0191

          k =-0.3536 0.0000 0.7071 (   892 PWs)   bands (ev):

   -39.3339 -18.5096  -1.7515  -1.7515  -0.4693  14.8222  14.8222  17.1595
    18.9834  27.0725  27.0725  33.6009  37.5946  41.6688  41.6688  42.2481
    44.8138  50.1948  51.2207  51.2207  52.2823  55.6756  58.6496  58.6496
    62.1215  62.1215  62.2891  62.6684  67.8613  67.8613  68.6699  75.5892
    75.8256  83.0205  83.0205  86.7679  91.1237  93.6585  93.6585  94.7970
    96.8132  96.8132  98.0352  98.8854  99.8709 103.1170 103.1170 104.7043
   108.7863 109.5666 112.6962 112.7757 112.7757 114.2769 116.6007 116.6007
   122.7552 123.0757 123.0757 126.6178 129.8619 129.8619 130.4140 131.2687
   131.2687 131.5981 132.1177 133.2815 134.6518 136.9601 136.9601 140.1590
   143.5306 145.7120 145.7120 146.5369 152.0253 152.0253 152.5379 153.2512
   153.3593 153.3593 153.7770 153.9550 155.9742 161.0858 161.0858 163.6994
   164.9665 166.3954 166.3954 166.9270 166.9270 167.4476 168.0255 168.5931
   172.1303 172.1303 172.2322 172.2669

          k =-0.5303 0.1768 0.5303 (   888 PWs)   bands (ev):

   -39.3426 -18.6184  -2.0365  -0.8406  -0.3052  12.7792  15.5994  18.4660
    19.2767  23.7164  32.5376  33.2515  36.3511  37.8788  38.0285  43.0167
    45.1776  49.1274  50.1666  51.7303  54.7278  55.9607  56.3687  58.8776
    61.2670  62.0516  67.1726  67.5217  69.7462  72.1307  75.1399  75.2689
    75.9993  80.9902  83.0519  84.3063  85.7774  89.1443  89.5661  89.8390
    94.8534  95.9059  98.4426 101.4005 102.2975 103.7175 105.6549 106.0256
   107.1335 108.5954 108.8554 110.6625 115.5676 115.7569 118.7146 119.5280
   120.6003 122.1185 122.3708 122.5556 126.9735 129.4522 130.0962 131.1134
   133.0463 133.7620 133.9037 134.7120 135.9920 137.3295 138.5559 139.0406
   141.5308 142.0211 145.1984 146.9759 147.5399 148.3376 150.9953 152.0459
   154.7295 154.8065 155.0312 156.9959 157.0543 159.5007 161.3891 161.7792
   162.5949 165.5030 167.0061 168.2783 170.2028 172.5237 173.7873 174.2162
   177.0385 178.0176 179.5828 180.0191

          k =-0.7071 0.3536 0.3536 (   883 PWs)   bands (ev):

   -39.3517 -18.7234  -1.5261  -1.0049   0.0744  11.9143  15.5591  19.1674
    19.1714  28.6156  28.6557  28.7024  36.5293  36.6244  39.6704  42.5584
    46.5142  47.6548  48.9294  52.3275  52.7312  55.0929  57.8122  64.0851
    64.2874  65.1212  66.9463  67.8839  71.2977  72.1939  73.1380  76.1499
    78.4045  80.8667  82.2715  83.3042  85.2635  85.4692  88.8062  92.3962
    94.0881  97.2632  98.1356  98.6119 101.3888 104.3993 104.9465 105.5974
   105.7318 106.7993 108.2258 109.4105 112.7911 116.0894 116.3151 119.0585
   119.4612 119.5463 121.5322 124.0505 124.3478 127.6976 128.9658 132.4312
   133.2523 133.3911 136.1431 136.4822 137.5692 138.1660 138.6660 141.6866
   141.9238 142.3077 143.8577 146.3488 150.0277 150.6403 151.7244 153.8607
   155.1321 155.4399 157.9197 159.4683 160.9621 162.1073 162.3300 163.1958
   163.6164 163.9407 163.9979 166.3984 171.3823 172.1673 173.7170 176.2400
   176.9002 177.2262 179.5773 180.4895

          k = 0.0000 0.0000 1.0607 (   881 PWs)   bands (ev):

   -39.3723 -18.8735  -1.1017  -0.1900  -0.1900  11.2579  18.5615  19.4532
    20.2722  20.2722  32.6106  32.6106  33.3513  34.3799  37.0344  42.7977
    43.0008  43.0008  49.8802  52.3845  55.3278  55.3278  64.0435  66.1650
    66.9679  66.9679  67.4701  73.1673  73.1673  73.4067  73.4295  80.9217
    84.0494  84.1321  84.1321  85.4185  85.4705  85.4705  88.5505  88.7610
    89.8406  89.8406  90.8677  90.9321  97.2614  97.2614 100.4985 102.8886
   106.2373 108.1687 108.3624 108.3624 109.4394 112.7520 114.1548 114.1548
   122.8014 123.5706 123.5706 124.5173 124.5173 127.0541 128.3834 128.5124
   134.9507 135.2406 135.2406 138.3098 139.2078 140.4216 140.4216 141.8861
   143.9705 144.6328 144.6328 145.8830 150.6774 150.6774 154.1022 155.9342
   156.5401 157.5994 157.5994 158.4390 162.1297 166.4786 166.4786 168.7748
   171.4484 172.8658 175.0852 175.0852 177.0354 177.0354 177.1920 177.3726
   177.6409 178.1934 178.1934 178.3330

          k =-0.1768 0.1768 0.8839 (   888 PWs)   bands (ev):

   -39.3426 -18.6184  -2.0365  -0.8406  -0.3052  12.7792  15.5994  18.4660
    19.2767  23.7164  32.5376  33.2515  36.3511  37.8788  38.0285  43.0167
    45.1776  49.1274  50.1666  51.7303  54.7278  55.9607  56.3687  58.8776
    61.2670  62.0516  67.1726  67.5217  69.7462  72.1307  75.1399  75.2689
    75.9993  80.9902  83.0519  84.3063  85.7774  89.1443  89.5661  89.8390
    94.8534  95.9059  98.4426 101.4005 102.2975 103.7175 105.6549 106.0256
   107.1335 108.5954 108.8554 110.6625 115.5676 115.7569 118.7146 119.5280
   120.6003 122.1185 122.3708 122.5556 126.9735 129.4522 130.0962 131.1134
   133.0463 133.7620 133.9037 134.7120 135.9920 137.3295 138.5559 139.0406
   141.5308 142.0211 145.1984 146.9759 147.5399 148.3376 150.9953 152.0459
   154.7295 154.8065 155.0312 156.9959 157.0543 159.5007 161.3891 161.7792
   162.5949 165.5030 167.0061 168.2783 170.2028 172.5237 173.7873 174.2162
   177.0385 178.0176 179.5828 180.0191

          k =-0.3536 0.3536 0.7071 (   883 PWs)   bands (ev):

   -39.3517 -18.7234  -1.5261  -1.0049   0.0744  11.9143  15.5591  19.1674
    19.1714  28.6156  28.6557  28.7024  36.5293  36.6244  39.6704  42.5584
    46.5142  47.6548  48.9294  52.3275  52.7312  55.0929  57.8122  64.0851
    64.2874  65.1212  66.9463  67.8839  71.2977  72.1939  73.1380  76.1499
    78.4045  80.8667  82.2715  83.3042  85.2635  85.4692  88.8062  92.3962
    94.0881  97.2632  98.1356  98.6119 101.3888 104.3993 104.9465 105.5974
   105.7318 106.7993 108.2258 109.4105 112.7911 116.0894 116.3151 119.0585
   119.4612 119.5463 121.5322 124.0505 124.3478 127.6976 128.9658 132.4312
   133.2523 133.3911 136.1431 136.4822 137.5692 138.1660 138.6660 141.6866
   141.9238 142.3077 143.8577 146.3488 150.0277 150.6403 151.7244 153.8607
   155.1321 155.4399 157.9197 159.4683 160.9621 162.1073 162.3300 163.1958
   163.6164 163.9407 163.9979 166.3984 171.3823 172.1673 173.7170 176.2400
   176.9002 177.2262 179.5773 180.4895

          k =-0.5303 0.5303 0.5303 (   896 PWs)   bands (ev):

   -39.3828 -18.9703  -1.0407   0.1936   0.1936  10.2061  17.6928  20.2412
    20.2412  26.6373  27.2127  27.2127  34.7880  34.7880  36.5632  39.7112
    45.3798  45.3798  47.9687  53.5280  53.5280  62.0033  66.1706  66.1706
    66.7465  67.6355  67.6355  70.2251  74.9073  76.3407  76.3407  78.6468
    81.3559  81.3559  82.8815  83.9865  84.6568  84.6568  89.2256  89.2256
    92.1730  92.1730  92.6512  94.7023  94.7023  94.7651 102.4671 104.7750
   104.7750 108.9187 109.3836 109.3836 110.3442 110.3442 111.3306 113.8444
   116.2849 116.2849 116.7918 120.5361 120.5361 120.5428 129.0993 129.0993
   130.0687 135.8368 138.2554 138.2554 142.7605 146.0055 146.0055 147.7534
   147.7534 150.0544 150.4040 150.4040 152.2406 155.5215 155.5215 159.1440
   159.2459 159.2459 161.8490 162.6572 163.8434 163.8434 166.9465 168.2849
   168.2849 169.0002 170.2182 170.2182 171.8424 174.8021 174.8021 174.9413
   176.4924 178.3010 178.3010 179.4789

     the Fermi energy is     2.1005 ev

!    total energy              =     -63.64408772 Ry
     estimated scf accuracy    <       0.00000026 Ry
     smearing contrib. (-TS)   =      -0.00000000 Ry
     internal energy E=F+TS    =     -63.64408772 Ry

     The total energy is F=E-TS. E is the sum of the following terms:
     one-electron contribution =     -25.51818159 Ry
     hartree contribution      =      16.60320266 Ry
     xc contribution           =     -14.09325905 Ry
     ewald contribution        =     -40.63584973 Ry

     convergence has been achieved in   5 iterations

     Forces acting on atoms (cartesian axes, Ry/au):

     atom    1 type  1   force =    -0.00000000   -0.00000001    0.00000000
     atom    2 type  2   force =     0.00000000    0.00000001   -0.00000000

     Total force =     0.000000     Total SCF correction =     0.000000
     SCF correction compared to forces is large: reduce conv_thr to get better values


     Computing stress (Cartesian axis) and pressure

          total   stress  (Ry/bohr**3)                   (kbar)     P=     -241.38
  -0.00164088   0.00000000   0.00000000         -241.38        0.00        0.00
   0.00000000  -0.00164088   0.00000000            0.00     -241.38        0.00
   0.00000000   0.00000000  -0.00164088            0.00        0.00     -241.38


     Writing all to output data dir ./LiF.save/ :
     XML data file, charge density, pseudopotentials, collected wavefunctions
 
     init_run     :      0.13s CPU      0.26s WALL (       1 calls)
     electrons    :      5.19s CPU      5.44s WALL (       1 calls)
     forces       :      0.01s CPU      0.01s WALL (       1 calls)
     stress       :      0.02s CPU      0.02s WALL (       1 calls)

     Called by init_run:
     wfcinit      :      0.11s CPU      0.23s WALL (       1 calls)
     potinit      :      0.02s CPU      0.02s WALL (       1 calls)
     hinit0       :      0.00s CPU      0.01s WALL (       1 calls)

     Called by electrons:
     c_bands      :      4.98s CPU      5.20s WALL (       6 calls)
     sum_band     :      0.21s CPU      0.22s WALL (       6 calls)
     v_of_rho     :      0.00s CPU      0.00s WALL (       6 calls)
     mix_rho      :      0.00s CPU      0.00s WALL (       6 calls)

     Called by c_bands:
     init_us_2    :      0.00s CPU      0.00s WALL (     240 calls)
     cegterg      :      4.55s CPU      4.77s WALL (      96 calls)

     Called by *egterg:
     cdiaghg      :      3.31s CPU      3.55s WALL (     297 calls)
     h_psi        :      1.02s CPU      1.08s WALL (     329 calls)
     g_psi        :      0.00s CPU      0.00s WALL (     217 calls)

     Called by h_psi:
     h_psi:calbec :      0.02s CPU      0.03s WALL (     329 calls)
     vloc_psi     :      0.99s CPU      1.04s WALL (     329 calls)
                                        0.00s GPU  (     329 calls)
     add_vuspsi   :      0.01s CPU      0.01s WALL (     329 calls)

     General routines
     calbec       :      0.04s CPU      0.05s WALL (     601 calls)
     fft          :      0.00s CPU      0.00s WALL (      26 calls)
     ffts         :      0.00s CPU      0.00s WALL (       6 calls)
     fftw         :      1.08s CPU      1.15s WALL (   58892 calls)
 
     Parallel routines
 
     PWSCF        :      5.48s CPU      5.97s WALL

 
   This run was terminated on:  22:14:49   3Jul2026            

=------------------------------------------------------------------------------=
   JOB DONE.
=------------------------------------------------------------------------------=
Error in system call pthread_mutex_destroy: Device or resource busy
    src/mpi/init/initthread.c:242
Error in system call pthread_mutex_destroy: Device or resource busy
    src/mpi/init/initthread.c:242
Error in system call pthread_mutex_destroy: Device or resource busy
    src/mpi/init/initthread.c:242
Error in system call pthread_mutex_destroy: Device or resource busy
    src/mpi/init/initthread.c:242
Error in system call pthread_mutex_destroy: Device or resource busy
    src/mpi/init/initthread.c:242
Error in system call pthread_mutex_destroy: Device or resource busy
    src/mpi/init/initthread.c:242
Error in system call pthread_mutex_destroy: Device or resource busy
    src/mpi/init/initthread.c:242
Error in system call pthread_mutex_destroy: Device or resource busy
    src/mpi/init/initthread.c:242
Error in system call pthread_mutex_destroy: Device or resource busy
    src/mpi/init/initthread.c:242
Error in system call pthread_mutex_destroy: Device or resource busy
    src/mpi/init/initthread.c:242
Error in system call pthread_mutex_destroy: Device or resource busy
    src/mpi/init/initthread.c:242
Error in system call pthread_mutex_destroy: Device or resource busy
    src/mpi/init/initthread.c:242
Error in system call pthread_mutex_destroy: Device or resource busy
    src/mpi/init/initthread.c:242
Error in system call pthread_mutex_destroy: Device or resource busy
    src/mpi/init/initthread.c:242
Error in system call pthread_mutex_destroy: Device or resource busy
    src/mpi/init/initthread.c:242
Error in system call pthread_mutex_destroy: Device or resource busy
    src/mpi/init/initthread.c:242
Error in system call pthread_mutex_destroy: Device or resource busy
    src/mpi/init/initthread.c:242
Error in system call pthread_mutex_destroy: Device or resource busy
    src/mpi/init/initthread.c:242
Error in system call pthread_mutex_destroy: Device or resource busy
    src/mpi/init/initthread.c:242
Error in system call pthread_mutex_destroy: Device or resource busy
    src/mpi/init/initthread.c:242
Error in system call pthread_mutex_destroy: Device or resource busy
    src/mpi/init/initthread.c:242
Error in system call pthread_mutex_destroy: Device or resource busy
    src/mpi/init/initthread.c:242
Error in system call pthread_mutex_destroy: Device or resource busy
    src/mpi/init/initthread.c:242
Error in system call pthread_mutex_destroy: Device or resource busy
    src/mpi/init/initthread.c:242
Error in system call pthread_mutex_destroy: Device or resource busy
    src/mpi/init/initthread.c:242
Error in system call pthread_mutex_destroy: Device or resource busy
    src/mpi/init/initthread.c:242
Error in system call pthread_mutex_destroy: Device or resource busy
    src/mpi/init/initthread.c:242
Error in system call pthread_mutex_destroy: Device or resource busy
    src/mpi/init/initthread.c:242
Error in system call pthread_mutex_destroy: Device or resource busy
    src/mpi/init/initthread.c:242
Error in system call pthread_mutex_destroy: Device or resource busy
    src/mpi/init/initthread.c:242
Error in system call pthread_mutex_destroy: Device or resource busy
    src/mpi/init/initthread.c:242
Error in system call pthread_mutex_destroy: Device or resource busy
    src/mpi/init/initthread.c:242
Error in system call pthread_mutex_destroy: Device or resource busy
    src/mpi/init/initthread.c:242
Error in system call pthread_mutex_destroy: Device or resource busy
    src/mpi/init/initthread.c:242
Error in system call pthread_mutex_destroy: Device or resource busy
    src/mpi/init/initthread.c:242
Error in system call pthread_mutex_destroy: Device or resource busy
    src/mpi/init/initthread.c:242
Error in system call pthread_mutex_destroy: Device or resource busy
    src/mpi/init/initthread.c:242
Error in system call pthread_mutex_destroy: Device or resource busy
    src/mpi/init/initthread.c:242
Error in system call pthread_mutex_destroy: Device or resource busy
    src/mpi/init/initthread.c:242
Error in system call pthread_mutex_destroy: Device or resource busy
    src/mpi/init/initthread.c:242
Error in system call pthread_mutex_destroy: Device or resource busy
    src/mpi/init/initthread.c:242
Error in system call pthread_mutex_destroy: Device or resource busy
    src/mpi/init/initthread.c:242
Error in system call pthread_mutex_destroy: Device or resource busy
    src/mpi/init/initthread.c:242
Error in system call pthread_mutex_destroy: Device or resource busy
    src/mpi/init/initthread.c:242
Error in system call pthread_mutex_destroy: Device or resource busy
    src/mpi/init/initthread.c:242
Error in system call pthread_mutex_destroy: Device or resource busy
    src/mpi/init/initthread.c:242
Error in system call pthread_mutex_destroy: Device or resource busy
    src/mpi/init/initthread.c:242
Error in system call pthread_mutex_destroy: Device or resource busy
    src/mpi/init/initthread.c:242
Error in system call pthread_mutex_destroy: Device or resource busy
    src/mpi/init/initthread.c:242
Error in system call pthread_mutex_destroy: Device or resource busy
    src/mpi/init/initthread.c:242
Error in system call pthread_mutex_destroy: Device or resource busy
    src/mpi/init/initthread.c:242
Error in system call pthread_mutex_destroy: Device or resource busy
    src/mpi/init/initthread.c:242
Error in system call pthread_mutex_destroy: Device or resource busy
    src/mpi/init/initthread.c:242
Error in system call pthread_mutex_destroy: Device or resource busy
    src/mpi/init/initthread.c:242
Error in system call pthread_mutex_destroy: Device or resource busy
    src/mpi/init/initthread.c:242
Error in system call pthread_mutex_destroy: Device or resource busy
    src/mpi/init/initthread.c:242
