Ignoring PCI device with non-16bit domain
[hmnode006.cluster:mpi_rank_0][MPID_Init] [Performance Suggestion]: Application has requested for multi-thread capability. If allocating memory from different pthreads/OpenMP threads, please consider setting MV2_USE_ALIGNED_ALLOC=1 for improved performance.
Use MV2_USE_THREAD_WARNING=0 to suppress this error message.

     Program PWSCF v.7.5 starts on  3Jul2026 at 22:14:35 

     This program is part of the open-source Quantum ESPRESSO suite
     for quantum simulation of materials; please cite
         "P. Giannozzi et al., J. Phys.:Condens. Matter 21 395502 (2009);
         "P. Giannozzi et al., J. Phys.:Condens. Matter 29 465901 (2017);
         "P. Giannozzi et al., J. Chem. Phys. 152 154105 (2020);
          URL http://www.quantum-espresso.org", 
     in publications or presentations arising from this work. More details at
     http://www.quantum-espresso.org/quote

     Parallel version (MPI & OpenMP), running on      56 processor cores
     Number of MPI processes:                56
     Threads/MPI process:                     1

     MPI processes distributed on     1 nodes
     917358 MiB available memory on the printing compute node when the environment starts
 
     Waiting for input...
     Reading input from standard input

     Current dimensions of program PWSCF are:
     Max number of different atomic species (ntypx) = 10
     Max number of k-points (npk) =  40000
     Max angular momentum in pseudopotentials (lmaxx) =  4
 
     K-points division:     npool     =       4
     R & G space division:  proc/nbgrp/npool/nimage =      14
     Subspace diagonalization in iterative solution of the eigenvalue problem:
     a serial algorithm will be used

 
     Parallelization info
     --------------------
     sticks:   dense  smooth     PW     G-vecs:    dense   smooth      PW
     Min          35      35     11                  507      507      99
     Max          36      36     12                  509      509     102
     Sum         499     499    163                 7119     7119    1411
 
     Using Slab Decomposition
 


     bravais-lattice index     =            0
     lattice parameter (alat)  =       5.4237  a.u.
     unit-cell volume          =     112.8194 (a.u.)^3
     number of atoms/cell      =            2
     number of atomic types    =            2
     number of electrons       =        10.00
     number of Kohn-Sham states=           15
     kinetic-energy cutoff     =      60.0000  Ry
     charge density cutoff     =     240.0000  Ry
     scf convergence threshold =      1.0E-06
     mixing beta               =       0.7000
     number of iterations used =            8  plain     mixing
     Exchange-correlation= SLA  PW   NOGX NOGC
                           (   1   4   0   0   0   0   0)

     celldm(1)=   5.423749  celldm(2)=   0.000000  celldm(3)=   0.000000
     celldm(4)=   0.000000  celldm(5)=   0.000000  celldm(6)=   0.000000

     crystal axes: (cart. coord. in units of alat)
               a(1) = (  -0.707107   0.000000   0.707107 )  
               a(2) = (   0.000000   0.707107   0.707107 )  
               a(3) = (  -0.707107   0.707107   0.000000 )  

     reciprocal axes: (cart. coord. in units 2 pi/alat)
               b(1) = ( -0.707107 -0.707107  0.707107 )  
               b(2) = (  0.707107  0.707107  0.707107 )  
               b(3) = ( -0.707107  0.707107 -0.707107 )  


     PseudoPot. # 1 for Li read from file:
     ../Li.upf
     MD5 check sum: cbd9518a540ce8f7f4a0218f2f072fdd
     Pseudo is Norm-conserving, Zval =  3.0
     Generated using ONCVPSP code by D. R. Hamann
     Using radial grid of 1944 points,  4 beta functions with: 
                l(1) =   0
                l(2) =   0
                l(3) =   1
                l(4) =   1

     PseudoPot. # 2 for F  read from file:
     ../F.upf
     MD5 check sum: 3dea638f9c9153f3282cad43c3474f58
     Pseudo is Norm-conserving + core correction, Zval =  7.0
     Generated using ONCVPSP code by D. R. Hamann
     Using radial grid of  824 points,  5 beta functions with: 
                l(1) =   0
                l(2) =   0
                l(3) =   1
                l(4) =   1
                l(5) =   2

     atomic species   valence    mass     pseudopotential
     Li                3.00     6.94100     Li( 1.00)
     F                 7.00    18.99840     F ( 1.00)

     No symmetry found



   Cartesian axes

     site n.     atom                  positions (alat units)
         1        Li     tau(   1) = (   0.0000000   0.0000000   0.0000000  )
         2        F      tau(   2) = (  -0.7071068   0.7071068   0.7071068  )

     number of k points=    64  Gaussian smearing, width (Ry)=  0.0010
                       cart. coord. in units 2pi/alat
        k(    1) = (   0.0000000   0.0000000   0.0000000), wk =   0.0312500
        k(    2) = (  -0.1767767   0.1767767  -0.1767767), wk =   0.0312500
        k(    3) = (  -0.3535534   0.3535534  -0.3535534), wk =   0.0312500
        k(    4) = (  -0.5303301   0.5303301  -0.5303301), wk =   0.0312500
        k(    5) = (   0.1767767   0.1767767   0.1767767), wk =   0.0312500
        k(    6) = (   0.0000000   0.3535534   0.0000000), wk =   0.0312500
        k(    7) = (  -0.1767767   0.5303301  -0.1767767), wk =   0.0312500
        k(    8) = (  -0.3535534   0.7071068  -0.3535534), wk =   0.0312500
        k(    9) = (   0.3535534   0.3535534   0.3535534), wk =   0.0312500
        k(   10) = (   0.1767767   0.5303301   0.1767767), wk =   0.0312500
        k(   11) = (   0.0000000   0.7071068   0.0000000), wk =   0.0312500
        k(   12) = (  -0.1767767   0.8838835  -0.1767767), wk =   0.0312500
        k(   13) = (   0.5303301   0.5303301   0.5303301), wk =   0.0312500
        k(   14) = (   0.3535534   0.7071068   0.3535534), wk =   0.0312500
        k(   15) = (   0.1767767   0.8838835   0.1767767), wk =   0.0312500
        k(   16) = (   0.0000000   1.0606602   0.0000000), wk =   0.0312500
        k(   17) = (  -0.1767767  -0.1767767   0.1767767), wk =   0.0312500
        k(   18) = (  -0.3535534   0.0000000   0.0000000), wk =   0.0312500
        k(   19) = (  -0.5303301   0.1767767  -0.1767767), wk =   0.0312500
        k(   20) = (  -0.7071068   0.3535534  -0.3535534), wk =   0.0312500
        k(   21) = (   0.0000000   0.0000000   0.3535534), wk =   0.0312500
        k(   22) = (  -0.1767767   0.1767767   0.1767767), wk =   0.0312500
        k(   23) = (  -0.3535534   0.3535534   0.0000000), wk =   0.0312500
        k(   24) = (  -0.5303301   0.5303301  -0.1767767), wk =   0.0312500
        k(   25) = (   0.1767767   0.1767767   0.5303301), wk =   0.0312500
        k(   26) = (   0.0000000   0.3535534   0.3535534), wk =   0.0312500
        k(   27) = (  -0.1767767   0.5303301   0.1767767), wk =   0.0312500
        k(   28) = (  -0.3535534   0.7071068   0.0000000), wk =   0.0312500
        k(   29) = (   0.3535534   0.3535534   0.7071068), wk =   0.0312500
        k(   30) = (   0.1767767   0.5303301   0.5303301), wk =   0.0312500
        k(   31) = (   0.0000000   0.7071068   0.3535534), wk =   0.0312500
        k(   32) = (  -0.1767767   0.8838835   0.1767767), wk =   0.0312500
        k(   33) = (  -0.3535534  -0.3535534   0.3535534), wk =   0.0312500
        k(   34) = (  -0.5303301  -0.1767767   0.1767767), wk =   0.0312500
        k(   35) = (  -0.7071068   0.0000000   0.0000000), wk =   0.0312500
        k(   36) = (  -0.8838835   0.1767767  -0.1767767), wk =   0.0312500
        k(   37) = (  -0.1767767  -0.1767767   0.5303301), wk =   0.0312500
        k(   38) = (  -0.3535534   0.0000000   0.3535534), wk =   0.0312500
        k(   39) = (  -0.5303301   0.1767767   0.1767767), wk =   0.0312500
        k(   40) = (  -0.7071068   0.3535534   0.0000000), wk =   0.0312500
        k(   41) = (   0.0000000   0.0000000   0.7071068), wk =   0.0312500
        k(   42) = (  -0.1767767   0.1767767   0.5303301), wk =   0.0312500
        k(   43) = (  -0.3535534   0.3535534   0.3535534), wk =   0.0312500
        k(   44) = (  -0.5303301   0.5303301   0.1767767), wk =   0.0312500
        k(   45) = (   0.1767767   0.1767767   0.8838835), wk =   0.0312500
        k(   46) = (   0.0000000   0.3535534   0.7071068), wk =   0.0312500
        k(   47) = (  -0.1767767   0.5303301   0.5303301), wk =   0.0312500
        k(   48) = (  -0.3535534   0.7071068   0.3535534), wk =   0.0312500
        k(   49) = (  -0.5303301  -0.5303301   0.5303301), wk =   0.0312500
        k(   50) = (  -0.7071068  -0.3535534   0.3535534), wk =   0.0312500
        k(   51) = (  -0.8838835  -0.1767767   0.1767767), wk =   0.0312500
        k(   52) = (  -1.0606602   0.0000000   0.0000000), wk =   0.0312500
        k(   53) = (  -0.3535534  -0.3535534   0.7071068), wk =   0.0312500
        k(   54) = (  -0.5303301  -0.1767767   0.5303301), wk =   0.0312500
        k(   55) = (  -0.7071068   0.0000000   0.3535534), wk =   0.0312500
        k(   56) = (  -0.8838835   0.1767767   0.1767767), wk =   0.0312500
        k(   57) = (  -0.1767767  -0.1767767   0.8838835), wk =   0.0312500
        k(   58) = (  -0.3535534   0.0000000   0.7071068), wk =   0.0312500
        k(   59) = (  -0.5303301   0.1767767   0.5303301), wk =   0.0312500
        k(   60) = (  -0.7071068   0.3535534   0.3535534), wk =   0.0312500
        k(   61) = (   0.0000000   0.0000000   1.0606602), wk =   0.0312500
        k(   62) = (  -0.1767767   0.1767767   0.8838835), wk =   0.0312500
        k(   63) = (  -0.3535534   0.3535534   0.7071068), wk =   0.0312500
        k(   64) = (  -0.5303301   0.5303301   0.5303301), wk =   0.0312500

     Dense  grid:     7119 G-vectors     FFT dimensions: (  27,  27,  27)

     Estimated max dynamical RAM per process >       2.65 MB

     Estimated total dynamical RAM >     143.44 MB

     Check: negative core charge=   -0.000008

     Initial potential from superposition of free atoms

     starting charge       9.9953, renormalised to      10.0000
     Starting wfcs are    6 randomized atomic wfcs +    9 random wfcs

     total cpu time spent up to now is        0.2 secs

     Self-consistent Calculation

     iteration #  1     ecut=    60.00 Ry     beta= 0.70
     Davidson diagonalization with overlap
     ethr =  1.00E-02,  avg # of iterations =  5.0

     Threshold (ethr) on eigenvalues was too large:
     Diagonalizing with lowered threshold

     Davidson diagonalization with overlap
     ethr =  9.84E-04,  avg # of iterations =  1.0

     total cpu time spent up to now is        0.3 secs

     total energy              =     -63.60656250 Ry
     estimated scf accuracy    <       0.09766084 Ry

     iteration #  2     ecut=    60.00 Ry     beta= 0.70
     Davidson diagonalization with overlap
     ethr =  9.77E-04,  avg # of iterations =  2.2

     total cpu time spent up to now is        0.4 secs

     total energy              =     -63.63015370 Ry
     estimated scf accuracy    <       0.06362530 Ry

     iteration #  3     ecut=    60.00 Ry     beta= 0.70
     Davidson diagonalization with overlap
     ethr =  6.36E-04,  avg # of iterations =  1.0

     total cpu time spent up to now is        0.4 secs

     total energy              =     -63.64390726 Ry
     estimated scf accuracy    <       0.00061458 Ry

     iteration #  4     ecut=    60.00 Ry     beta= 0.70
     Davidson diagonalization with overlap
     ethr =  6.15E-06,  avg # of iterations =  2.0

     total cpu time spent up to now is        0.5 secs

     total energy              =     -63.64408755 Ry
     estimated scf accuracy    <       0.00001360 Ry

     iteration #  5     ecut=    60.00 Ry     beta= 0.70
     Davidson diagonalization with overlap
     ethr =  1.36E-07,  avg # of iterations =  1.9

     total cpu time spent up to now is        0.5 secs

     total energy              =     -63.64408773 Ry
     estimated scf accuracy    <       0.00000145 Ry

     iteration #  6     ecut=    60.00 Ry     beta= 0.70
     Davidson diagonalization with overlap
     ethr =  1.45E-08,  avg # of iterations =  2.0

     total cpu time spent up to now is        0.6 secs

     End of self-consistent calculation

          k = 0.0000 0.0000 0.0000 (   893 PWs)   bands (ev):

   -39.4160 -19.1713   0.3150   0.3150   0.3150   8.9748  23.5298  23.5298
    23.5298  24.0861  24.0861  24.0861  26.9611  31.1989  31.1989

          k =-0.1768 0.1768-0.1768 (   896 PWs)   bands (ev):

   -39.3848 -18.9666  -1.0375   0.1973   0.1973  10.2075  17.6940  20.2414
    20.2414  26.6378  27.2134  27.2134  34.7888  34.7888  36.5642

          k =-0.3536 0.3536-0.3536 (   886 PWs)   bands (ev):

   -39.3527 -18.7460  -2.1721   0.0957   0.0957  10.6290  16.4724  18.6204
    18.6204  30.0615  30.5587  30.5587  33.1303  36.6447  36.6447

          k =-0.5303 0.5303-0.5303 (   896 PWs)   bands (ev):

   -39.3848 -18.9666  -1.0375   0.1973   0.1973  10.2075  17.6940  20.2414
    20.2414  26.6378  27.2134  27.2134  34.7888  34.7888  36.5642

          k = 0.1768 0.1768 0.1768 (   896 PWs)   bands (ev):

   -39.3848 -18.9666  -1.0375   0.1973   0.1973  10.2075  17.6940  20.2414
    20.2414  26.6378  27.2134  27.2134  34.7888  34.7888  36.5642

          k = 0.0000 0.3536 0.0000 (   881 PWs)   bands (ev):

   -39.3744 -18.8697  -1.0986  -0.1865  -0.1865  11.2596  18.5625  19.4533
    20.2728  20.2728  32.6109  32.6109  33.3519  34.3810  37.0356

          k =-0.1768 0.5303-0.1768 (   888 PWs)   bands (ev):

   -39.3447 -18.6145  -2.0336  -0.8373  -0.3018  12.7807  15.6010  18.4666
    19.2772  23.7172  32.5382  33.2525  36.3519  37.8795  38.0292

          k =-0.3536 0.7071-0.3536 (   883 PWs)   bands (ev):

   -39.3537 -18.7196  -1.5230  -1.0017   0.0780  11.9157  15.5605  19.1677
    19.1721  28.6164  28.6561  28.7033  36.5305  36.6251  39.6709

          k = 0.3536 0.3536 0.3536 (   886 PWs)   bands (ev):

   -39.3527 -18.7460  -2.1721   0.0957   0.0957  10.6290  16.4724  18.6204
    18.6204  30.0615  30.5587  30.5587  33.1303  36.6447  36.6447

          k = 0.1768 0.5303 0.1768 (   888 PWs)   bands (ev):

   -39.3447 -18.6145  -2.0336  -0.8373  -0.3018  12.7807  15.6010  18.4666
    19.2772  23.7172  32.5382  33.2525  36.3519  37.8795  38.0292

          k = 0.0000 0.7071 0.0000 (   894 PWs)   bands (ev):

   -39.3365 -18.4779  -2.6759  -0.6696  -0.6696  14.5631  16.3197  17.2361
    19.8625  19.8625  32.9451  37.9207  39.3733  41.0680  41.0680

          k =-0.1768 0.8839-0.1768 (   888 PWs)   bands (ev):

   -39.3447 -18.6145  -2.0336  -0.8373  -0.3018  12.7807  15.6010  18.4666
    19.2772  23.7172  32.5382  33.2525  36.3519  37.8795  38.0292

          k = 0.5303 0.5303 0.5303 (   896 PWs)   bands (ev):

   -39.3848 -18.9666  -1.0375   0.1973   0.1973  10.2075  17.6940  20.2414
    20.2414  26.6378  27.2134  27.2134  34.7888  34.7888  36.5642

          k = 0.3536 0.7071 0.3536 (   883 PWs)   bands (ev):

   -39.3537 -18.7196  -1.5230  -1.0017   0.0780  11.9157  15.5605  19.1677
    19.1721  28.6164  28.6561  28.7033  36.5305  36.6251  39.6709

          k = 0.1768 0.8839 0.1768 (   888 PWs)   bands (ev):

   -39.3447 -18.6145  -2.0336  -0.8373  -0.3018  12.7807  15.6010  18.4666
    19.2772  23.7172  32.5382  33.2525  36.3519  37.8795  38.0292

          k = 0.0000 1.0607 0.0000 (   881 PWs)   bands (ev):

   -39.3744 -18.8697  -1.0986  -0.1865  -0.1865  11.2596  18.5625  19.4533
    20.2728  20.2728  32.6109  32.6109  33.3519  34.3810  37.0356

          k =-0.1768-0.1768 0.1768 (   896 PWs)   bands (ev):

   -39.3848 -18.9666  -1.0375   0.1973   0.1973  10.2075  17.6940  20.2414
    20.2414  26.6378  27.2134  27.2134  34.7888  34.7888  36.5642

          k =-0.3536 0.0000 0.0000 (   881 PWs)   bands (ev):

   -39.3744 -18.8697  -1.0986  -0.1865  -0.1865  11.2596  18.5625  19.4533
    20.2728  20.2728  32.6109  32.6109  33.3519  34.3810  37.0356

          k =-0.5303 0.1768-0.1768 (   888 PWs)   bands (ev):

   -39.3447 -18.6145  -2.0336  -0.8373  -0.3018  12.7807  15.6010  18.4666
    19.2772  23.7172  32.5382  33.2525  36.3519  37.8795  38.0292

          k =-0.7071 0.3536-0.3536 (   883 PWs)   bands (ev):

   -39.3537 -18.7196  -1.5230  -1.0017   0.0780  11.9157  15.5605  19.1677
    19.1721  28.6164  28.6561  28.7033  36.5305  36.6251  39.6709

          k = 0.0000 0.0000 0.3536 (   881 PWs)   bands (ev):

   -39.3744 -18.8697  -1.0986  -0.1865  -0.1865  11.2596  18.5625  19.4533
    20.2728  20.2728  32.6109  32.6109  33.3519  34.3810  37.0356

          k =-0.1768 0.1768 0.1768 (   896 PWs)   bands (ev):

   -39.3848 -18.9666  -1.0375   0.1973   0.1973  10.2075  17.6940  20.2414
    20.2414  26.6378  27.2134  27.2134  34.7888  34.7888  36.5642

          k =-0.3536 0.3536 0.0000 (   883 PWs)   bands (ev):

   -39.3537 -18.7196  -1.5230  -1.0017   0.0780  11.9157  15.5605  19.1677
    19.1721  28.6164  28.6561  28.7033  36.5305  36.6251  39.6709

          k =-0.5303 0.5303-0.1768 (   888 PWs)   bands (ev):

   -39.3447 -18.6145  -2.0336  -0.8373  -0.3018  12.7807  15.6010  18.4666
    19.2772  23.7172  32.5382  33.2525  36.3519  37.8795  38.0292

          k = 0.1768 0.1768 0.5303 (   888 PWs)   bands (ev):

   -39.3447 -18.6145  -2.0336  -0.8373  -0.3018  12.7807  15.6010  18.4666
    19.2772  23.7172  32.5382  33.2525  36.3519  37.8795  38.0292

          k = 0.0000 0.3536 0.3536 (   883 PWs)   bands (ev):

   -39.3537 -18.7196  -1.5230  -1.0017   0.0780  11.9157  15.5605  19.1677
    19.1721  28.6164  28.6561  28.7033  36.5305  36.6251  39.6709

          k =-0.1768 0.5303 0.1768 (   888 PWs)   bands (ev):

   -39.3447 -18.6145  -2.0336  -0.8373  -0.3018  12.7807  15.6010  18.4666
    19.2772  23.7172  32.5382  33.2525  36.3519  37.8795  38.0292

          k =-0.3536 0.7071 0.0000 (   892 PWs)   bands (ev):

   -39.3359 -18.5058  -1.7485  -1.7485  -0.4659  14.8239  14.8239  17.1600
    18.9842  27.0731  27.0731  33.6016  37.5957  41.6692  41.6692

          k = 0.3536 0.3536 0.7071 (   883 PWs)   bands (ev):

   -39.3537 -18.7196  -1.5230  -1.0017   0.0780  11.9157  15.5605  19.1677
    19.1721  28.6164  28.6561  28.7033  36.5305  36.6251  39.6709

          k = 0.1768 0.5303 0.5303 (   888 PWs)   bands (ev):

   -39.3447 -18.6145  -2.0336  -0.8373  -0.3018  12.7807  15.6010  18.4666
    19.2772  23.7172  32.5382  33.2525  36.3519  37.8795  38.0292

          k = 0.0000 0.7071 0.3536 (   892 PWs)   bands (ev):

   -39.3359 -18.5058  -1.7485  -1.7485  -0.4659  14.8239  14.8239  17.1600
    18.9842  27.0731  27.0731  33.6016  37.5957  41.6692  41.6692

          k =-0.1768 0.8839 0.1768 (   888 PWs)   bands (ev):

   -39.3447 -18.6145  -2.0336  -0.8373  -0.3018  12.7807  15.6010  18.4666
    19.2772  23.7172  32.5382  33.2525  36.3519  37.8795  38.0292

          k =-0.3536-0.3536 0.3536 (   886 PWs)   bands (ev):

   -39.3527 -18.7460  -2.1721   0.0957   0.0957  10.6290  16.4724  18.6204
    18.6204  30.0615  30.5587  30.5587  33.1303  36.6447  36.6447

          k =-0.5303-0.1768 0.1768 (   888 PWs)   bands (ev):

   -39.3447 -18.6145  -2.0336  -0.8373  -0.3018  12.7807  15.6010  18.4666
    19.2772  23.7172  32.5382  33.2525  36.3519  37.8795  38.0292

          k =-0.7071 0.0000 0.0000 (   894 PWs)   bands (ev):

   -39.3365 -18.4779  -2.6759  -0.6696  -0.6696  14.5631  16.3197  17.2361
    19.8625  19.8625  32.9451  37.9207  39.3733  41.0680  41.0680

          k =-0.8839 0.1768-0.1768 (   888 PWs)   bands (ev):

   -39.3447 -18.6145  -2.0336  -0.8373  -0.3018  12.7807  15.6010  18.4666
    19.2772  23.7172  32.5382  33.2525  36.3519  37.8795  38.0292

          k =-0.1768-0.1768 0.5303 (   888 PWs)   bands (ev):

   -39.3447 -18.6145  -2.0336  -0.8373  -0.3018  12.7807  15.6010  18.4666
    19.2772  23.7172  32.5382  33.2525  36.3519  37.8795  38.0292

          k =-0.3536 0.0000 0.3536 (   883 PWs)   bands (ev):

   -39.3537 -18.7196  -1.5230  -1.0017   0.0780  11.9157  15.5605  19.1677
    19.1721  28.6164  28.6561  28.7033  36.5305  36.6251  39.6709

          k =-0.5303 0.1768 0.1768 (   888 PWs)   bands (ev):

   -39.3447 -18.6145  -2.0336  -0.8373  -0.3018  12.7807  15.6010  18.4666
    19.2772  23.7172  32.5382  33.2525  36.3519  37.8795  38.0292

          k =-0.7071 0.3536 0.0000 (   892 PWs)   bands (ev):

   -39.3359 -18.5058  -1.7485  -1.7485  -0.4659  14.8239  14.8239  17.1600
    18.9842  27.0731  27.0731  33.6016  37.5957  41.6692  41.6692

          k = 0.0000 0.0000 0.7071 (   894 PWs)   bands (ev):

   -39.3365 -18.4779  -2.6759  -0.6696  -0.6696  14.5631  16.3197  17.2361
    19.8625  19.8625  32.9451  37.9207  39.3733  41.0680  41.0680

          k =-0.1768 0.1768 0.5303 (   888 PWs)   bands (ev):

   -39.3447 -18.6145  -2.0336  -0.8373  -0.3018  12.7807  15.6010  18.4666
    19.2772  23.7172  32.5382  33.2525  36.3519  37.8795  38.0292

          k =-0.3536 0.3536 0.3536 (   886 PWs)   bands (ev):

   -39.3527 -18.7460  -2.1721   0.0957   0.0957  10.6290  16.4724  18.6204
    18.6204  30.0615  30.5587  30.5587  33.1303  36.6447  36.6447

          k =-0.5303 0.5303 0.1768 (   888 PWs)   bands (ev):

   -39.3447 -18.6145  -2.0336  -0.8373  -0.3018  12.7807  15.6010  18.4666
    19.2772  23.7172  32.5382  33.2525  36.3519  37.8795  38.0292

          k = 0.1768 0.1768 0.8839 (   888 PWs)   bands (ev):

   -39.3447 -18.6145  -2.0336  -0.8373  -0.3018  12.7807  15.6010  18.4666
    19.2772  23.7172  32.5382  33.2525  36.3519  37.8795  38.0292

          k = 0.0000 0.3536 0.7071 (   892 PWs)   bands (ev):

   -39.3359 -18.5058  -1.7485  -1.7485  -0.4659  14.8239  14.8239  17.1600
    18.9842  27.0731  27.0731  33.6016  37.5957  41.6692  41.6692

          k =-0.1768 0.5303 0.5303 (   888 PWs)   bands (ev):

   -39.3447 -18.6145  -2.0336  -0.8373  -0.3018  12.7807  15.6010  18.4666
    19.2772  23.7172  32.5382  33.2525  36.3519  37.8795  38.0292

          k =-0.3536 0.7071 0.3536 (   883 PWs)   bands (ev):

   -39.3537 -18.7196  -1.5230  -1.0017   0.0780  11.9157  15.5605  19.1677
    19.1721  28.6164  28.6561  28.7033  36.5305  36.6251  39.6709

          k =-0.5303-0.5303 0.5303 (   896 PWs)   bands (ev):

   -39.3848 -18.9666  -1.0375   0.1973   0.1973  10.2075  17.6940  20.2414
    20.2414  26.6378  27.2134  27.2134  34.7888  34.7888  36.5642

          k =-0.7071-0.3536 0.3536 (   883 PWs)   bands (ev):

   -39.3537 -18.7196  -1.5230  -1.0017   0.0780  11.9157  15.5605  19.1677
    19.1721  28.6164  28.6561  28.7033  36.5305  36.6251  39.6709

          k =-0.8839-0.1768 0.1768 (   888 PWs)   bands (ev):

   -39.3447 -18.6145  -2.0336  -0.8373  -0.3018  12.7807  15.6010  18.4666
    19.2772  23.7172  32.5382  33.2525  36.3519  37.8795  38.0292

          k =-1.0607 0.0000 0.0000 (   881 PWs)   bands (ev):

   -39.3744 -18.8697  -1.0986  -0.1865  -0.1865  11.2596  18.5625  19.4533
    20.2728  20.2728  32.6109  32.6109  33.3519  34.3810  37.0356

          k =-0.3536-0.3536 0.7071 (   883 PWs)   bands (ev):

   -39.3537 -18.7196  -1.5230  -1.0017   0.0780  11.9157  15.5605  19.1677
    19.1721  28.6164  28.6561  28.7033  36.5305  36.6251  39.6709

          k =-0.5303-0.1768 0.5303 (   888 PWs)   bands (ev):

   -39.3447 -18.6145  -2.0336  -0.8373  -0.3018  12.7807  15.6010  18.4666
    19.2772  23.7172  32.5382  33.2525  36.3519  37.8795  38.0292

          k =-0.7071 0.0000 0.3536 (   892 PWs)   bands (ev):

   -39.3359 -18.5058  -1.7485  -1.7485  -0.4659  14.8239  14.8239  17.1600
    18.9842  27.0731  27.0731  33.6016  37.5957  41.6692  41.6692

          k =-0.8839 0.1768 0.1768 (   888 PWs)   bands (ev):

   -39.3447 -18.6145  -2.0336  -0.8373  -0.3018  12.7807  15.6010  18.4666
    19.2772  23.7172  32.5382  33.2525  36.3519  37.8795  38.0292

          k =-0.1768-0.1768 0.8839 (   888 PWs)   bands (ev):

   -39.3447 -18.6145  -2.0336  -0.8373  -0.3018  12.7807  15.6010  18.4666
    19.2772  23.7172  32.5382  33.2525  36.3519  37.8795  38.0292

          k =-0.3536 0.0000 0.7071 (   892 PWs)   bands (ev):

   -39.3359 -18.5058  -1.7485  -1.7485  -0.4659  14.8239  14.8239  17.1600
    18.9842  27.0731  27.0731  33.6016  37.5957  41.6692  41.6692

          k =-0.5303 0.1768 0.5303 (   888 PWs)   bands (ev):

   -39.3447 -18.6145  -2.0336  -0.8373  -0.3018  12.7807  15.6010  18.4666
    19.2772  23.7172  32.5382  33.2525  36.3519  37.8795  38.0292

          k =-0.7071 0.3536 0.3536 (   883 PWs)   bands (ev):

   -39.3537 -18.7196  -1.5230  -1.0017   0.0780  11.9157  15.5605  19.1677
    19.1721  28.6164  28.6561  28.7033  36.5305  36.6251  39.6709

          k = 0.0000 0.0000 1.0607 (   881 PWs)   bands (ev):

   -39.3744 -18.8697  -1.0986  -0.1865  -0.1865  11.2596  18.5625  19.4533
    20.2728  20.2728  32.6109  32.6109  33.3519  34.3810  37.0356

          k =-0.1768 0.1768 0.8839 (   888 PWs)   bands (ev):

   -39.3447 -18.6145  -2.0336  -0.8373  -0.3018  12.7807  15.6010  18.4666
    19.2772  23.7172  32.5382  33.2525  36.3519  37.8795  38.0292

          k =-0.3536 0.3536 0.7071 (   883 PWs)   bands (ev):

   -39.3537 -18.7196  -1.5230  -1.0017   0.0780  11.9157  15.5605  19.1677
    19.1721  28.6164  28.6561  28.7033  36.5305  36.6251  39.6709

          k =-0.5303 0.5303 0.5303 (   896 PWs)   bands (ev):

   -39.3848 -18.9666  -1.0375   0.1973   0.1973  10.2075  17.6940  20.2414
    20.2414  26.6378  27.2134  27.2134  34.7888  34.7888  36.5642

     the Fermi energy is     1.1266 ev

!    total energy              =     -63.64408782 Ry
     estimated scf accuracy    <       0.00000002 Ry
     smearing contrib. (-TS)   =      -0.00000000 Ry
     internal energy E=F+TS    =     -63.64408782 Ry

     The total energy is F=E-TS. E is the sum of the following terms:
     one-electron contribution =     -25.51610060 Ry
     hartree contribution      =      16.60049790 Ry
     xc contribution           =     -14.09263537 Ry
     ewald contribution        =     -40.63584973 Ry

     convergence has been achieved in   6 iterations

     Forces acting on atoms (cartesian axes, Ry/au):

     atom    1 type  1   force =    -0.00000010   -0.00000010    0.00000007
     atom    2 type  2   force =     0.00000010    0.00000010   -0.00000007

     Total force =     0.000000     Total SCF correction =     0.000001
     SCF correction compared to forces is large: reduce conv_thr to get better values


     Computing stress (Cartesian axis) and pressure

          total   stress  (Ry/bohr**3)                   (kbar)     P=     -243.38
  -0.00165447  -0.00000000  -0.00000000         -243.38       -0.00       -0.00
  -0.00000000  -0.00165446  -0.00000000           -0.00     -243.38       -0.00
  -0.00000000  -0.00000000  -0.00165447           -0.00       -0.00     -243.38


     Writing all to output data dir ./LiF.save/ :
     XML data file, charge density, pseudopotentials, collected wavefunctions
 
     init_run     :      0.04s CPU      0.09s WALL (       1 calls)
     electrons    :      0.38s CPU      0.44s WALL (       1 calls)
     forces       :      0.00s CPU      0.00s WALL (       1 calls)
     stress       :      0.01s CPU      0.01s WALL (       1 calls)

     Called by init_run:
     wfcinit      :      0.02s CPU      0.06s WALL (       1 calls)
     potinit      :      0.00s CPU      0.00s WALL (       1 calls)
     hinit0       :      0.02s CPU      0.03s WALL (       1 calls)

     Called by electrons:
     c_bands      :      0.33s CPU      0.35s WALL (       7 calls)
     sum_band     :      0.04s CPU      0.04s WALL (       7 calls)
     v_of_rho     :      0.00s CPU      0.00s WALL (       7 calls)
     mix_rho      :      0.00s CPU      0.00s WALL (       7 calls)

     Called by c_bands:
     init_us_2    :      0.00s CPU      0.00s WALL (     272 calls)
     cegterg      :      0.29s CPU      0.31s WALL (     112 calls)

     Called by *egterg:
     cdiaghg      :      0.09s CPU      0.13s WALL (     332 calls)
     h_psi        :      0.19s CPU      0.20s WALL (     364 calls)
     g_psi        :      0.00s CPU      0.00s WALL (     236 calls)

     Called by h_psi:
     h_psi:calbec :      0.01s CPU      0.01s WALL (     364 calls)
     vloc_psi     :      0.18s CPU      0.19s WALL (     364 calls)
                                        0.00s GPU  (     364 calls)
     add_vuspsi   :      0.00s CPU      0.00s WALL (     364 calls)

     General routines
     calbec       :      0.01s CPU      0.01s WALL (     636 calls)
     fft          :      0.00s CPU      0.01s WALL (      29 calls)
     ffts         :      0.00s CPU      0.00s WALL (       7 calls)
     fftw         :      0.19s CPU      0.20s WALL (   10522 calls)
 
     Parallel routines
 
     PWSCF        :      0.49s CPU      0.78s WALL

 
   This run was terminated on:  22:14:36   3Jul2026            

=------------------------------------------------------------------------------=
   JOB DONE.
=------------------------------------------------------------------------------=
Error in system call pthread_mutex_destroy: Device or resource busy
    src/mpi/init/initthread.c:242
Error in system call pthread_mutex_destroy: Device or resource busy
    src/mpi/init/initthread.c:242
Error in system call pthread_mutex_destroy: Device or resource busy
    src/mpi/init/initthread.c:242
Error in system call pthread_mutex_destroy: Device or resource busy
    src/mpi/init/initthread.c:242
Error in system call pthread_mutex_destroy: Device or resource busy
    src/mpi/init/initthread.c:242
Error in system call pthread_mutex_destroy: Device or resource busy
    src/mpi/init/initthread.c:242
Error in system call pthread_mutex_destroy: Device or resource busy
    src/mpi/init/initthread.c:242
Error in system call pthread_mutex_destroy: Device or resource busy
    src/mpi/init/initthread.c:242
Error in system call pthread_mutex_destroy: Device or resource busy
    src/mpi/init/initthread.c:242
Error in system call pthread_mutex_destroy: Device or resource busy
    src/mpi/init/initthread.c:242
Error in system call pthread_mutex_destroy: Device or resource busy
    src/mpi/init/initthread.c:242
Error in system call pthread_mutex_destroy: Device or resource busy
    src/mpi/init/initthread.c:242
Error in system call pthread_mutex_destroy: Device or resource busy
    src/mpi/init/initthread.c:242
Error in system call pthread_mutex_destroy: Device or resource busy
    src/mpi/init/initthread.c:242
Error in system call pthread_mutex_destroy: Device or resource busy
    src/mpi/init/initthread.c:242
Error in system call pthread_mutex_destroy: Device or resource busy
    src/mpi/init/initthread.c:242
Error in system call pthread_mutex_destroy: Device or resource busy
    src/mpi/init/initthread.c:242
Error in system call pthread_mutex_destroy: Device or resource busy
    src/mpi/init/initthread.c:242
Error in system call pthread_mutex_destroy: Device or resource busy
    src/mpi/init/initthread.c:242
Error in system call pthread_mutex_destroy: Device or resource busy
    src/mpi/init/initthread.c:242
Error in system call pthread_mutex_destroy: Device or resource busy
    src/mpi/init/initthread.c:242
Error in system call pthread_mutex_destroy: Device or resource busy
    src/mpi/init/initthread.c:242
Error in system call pthread_mutex_destroy: Device or resource busy
    src/mpi/init/initthread.c:242
Error in system call pthread_mutex_destroy: Device or resource busy
    src/mpi/init/initthread.c:242
Error in system call pthread_mutex_destroy: Device or resource busy
    src/mpi/init/initthread.c:242
Error in system call pthread_mutex_destroy: Device or resource busy
    src/mpi/init/initthread.c:242
Error in system call pthread_mutex_destroy: Device or resource busy
    src/mpi/init/initthread.c:242
Error in system call pthread_mutex_destroy: Device or resource busy
    src/mpi/init/initthread.c:242
Error in system call pthread_mutex_destroy: Device or resource busy
    src/mpi/init/initthread.c:242
Error in system call pthread_mutex_destroy: Device or resource busy
    src/mpi/init/initthread.c:242
Error in system call pthread_mutex_destroy: Device or resource busy
    src/mpi/init/initthread.c:242
Error in system call pthread_mutex_destroy: Device or resource busy
    src/mpi/init/initthread.c:242
Error in system call pthread_mutex_destroy: Device or resource busy
    src/mpi/init/initthread.c:242
Error in system call pthread_mutex_destroy: Device or resource busy
    src/mpi/init/initthread.c:242
Error in system call pthread_mutex_destroy: Device or resource busy
    src/mpi/init/initthread.c:242
Error in system call pthread_mutex_destroy: Device or resource busy
    src/mpi/init/initthread.c:242
Error in system call pthread_mutex_destroy: Device or resource busy
    src/mpi/init/initthread.c:242
Error in system call pthread_mutex_destroy: Device or resource busy
    src/mpi/init/initthread.c:242
Error in system call pthread_mutex_destroy: Device or resource busy
    src/mpi/init/initthread.c:242
Error in system call pthread_mutex_destroy: Device or resource busy
    src/mpi/init/initthread.c:242
Error in system call pthread_mutex_destroy: Device or resource busy
    src/mpi/init/initthread.c:242
Error in system call pthread_mutex_destroy: Device or resource busy
    src/mpi/init/initthread.c:242
Error in system call pthread_mutex_destroy: Device or resource busy
    src/mpi/init/initthread.c:242
Error in system call pthread_mutex_destroy: Device or resource busy
    src/mpi/init/initthread.c:242
Error in system call pthread_mutex_destroy: Device or resource busy
    src/mpi/init/initthread.c:242
Error in system call pthread_mutex_destroy: Device or resource busy
    src/mpi/init/initthread.c:242
Error in system call pthread_mutex_destroy: Device or resource busy
    src/mpi/init/initthread.c:242
Error in system call pthread_mutex_destroy: Device or resource busy
    src/mpi/init/initthread.c:242
Error in system call pthread_mutex_destroy: Device or resource busy
    src/mpi/init/initthread.c:242
Error in system call pthread_mutex_destroy: Device or resource busy
    src/mpi/init/initthread.c:242
Error in system call pthread_mutex_destroy: Device or resource busy
    src/mpi/init/initthread.c:242
Error in system call pthread_mutex_destroy: Device or resource busy
    src/mpi/init/initthread.c:242
Error in system call pthread_mutex_destroy: Device or resource busy
    src/mpi/init/initthread.c:242
Error in system call pthread_mutex_destroy: Device or resource busy
    src/mpi/init/initthread.c:242
Error in system call pthread_mutex_destroy: Device or resource busy
    src/mpi/init/initthread.c:242
Error in system call pthread_mutex_destroy: Device or resource busy
    src/mpi/init/initthread.c:242
