Ignoring PCI device with non-16bit domain
[hmnode006.cluster:mpi_rank_0][MPID_Init] [Performance Suggestion]: Application has requested for multi-thread capability. If allocating memory from different pthreads/OpenMP threads, please consider setting MV2_USE_ALIGNED_ALLOC=1 for improved performance.
Use MV2_USE_THREAD_WARNING=0 to suppress this error message.

     Program PWSCF v.7.5 starts on  3Jul2026 at 22:14:59 

     This program is part of the open-source Quantum ESPRESSO suite
     for quantum simulation of materials; please cite
         "P. Giannozzi et al., J. Phys.:Condens. Matter 21 395502 (2009);
         "P. Giannozzi et al., J. Phys.:Condens. Matter 29 465901 (2017);
         "P. Giannozzi et al., J. Chem. Phys. 152 154105 (2020);
          URL http://www.quantum-espresso.org", 
     in publications or presentations arising from this work. More details at
     http://www.quantum-espresso.org/quote

     Parallel version (MPI & OpenMP), running on      56 processor cores
     Number of MPI processes:                56
     Threads/MPI process:                     1

     MPI processes distributed on     1 nodes
     917670 MiB available memory on the printing compute node when the environment starts
 
     Waiting for input...
     Reading input from standard input

     Current dimensions of program PWSCF are:
     Max number of different atomic species (ntypx) = 10
     Max number of k-points (npk) =  40000
     Max angular momentum in pseudopotentials (lmaxx) =  4
 
     K-points division:     npool     =       4
     R & G space division:  proc/nbgrp/npool/nimage =      14
     Subspace diagonalization in iterative solution of the eigenvalue problem:
     a serial algorithm will be used

 
     Parallelization info
     --------------------
     sticks:   dense  smooth     PW     G-vecs:    dense   smooth      PW
     Min          35      35     11                  507      507      99
     Max          36      36     12                  509      509     102
     Sum         499     499    163                 7119     7119    1411
 
     Using Slab Decomposition
 


     bravais-lattice index     =            0
     lattice parameter (alat)  =       5.4237  a.u.
     unit-cell volume          =     112.8194 (a.u.)^3
     number of atoms/cell      =            2
     number of atomic types    =            2
     number of electrons       =        10.00
     number of Kohn-Sham states=           20
     kinetic-energy cutoff     =      60.0000  Ry
     charge density cutoff     =     240.0000  Ry
     scf convergence threshold =      1.0E-06
     mixing beta               =       0.7000
     number of iterations used =            8  plain     mixing
     Exchange-correlation= SLA  PW   NOGX NOGC
                           (   1   4   0   0   0   0   0)

     celldm(1)=   5.423749  celldm(2)=   0.000000  celldm(3)=   0.000000
     celldm(4)=   0.000000  celldm(5)=   0.000000  celldm(6)=   0.000000

     crystal axes: (cart. coord. in units of alat)
               a(1) = (  -0.707107   0.000000   0.707107 )  
               a(2) = (   0.000000   0.707107   0.707107 )  
               a(3) = (  -0.707107   0.707107   0.000000 )  

     reciprocal axes: (cart. coord. in units 2 pi/alat)
               b(1) = ( -0.707107 -0.707107  0.707107 )  
               b(2) = (  0.707107  0.707107  0.707107 )  
               b(3) = ( -0.707107  0.707107 -0.707107 )  


     PseudoPot. # 1 for Li read from file:
     ../Li.upf
     MD5 check sum: cbd9518a540ce8f7f4a0218f2f072fdd
     Pseudo is Norm-conserving, Zval =  3.0
     Generated using ONCVPSP code by D. R. Hamann
     Using radial grid of 1944 points,  4 beta functions with: 
                l(1) =   0
                l(2) =   0
                l(3) =   1
                l(4) =   1

     PseudoPot. # 2 for F  read from file:
     ../F.upf
     MD5 check sum: 3dea638f9c9153f3282cad43c3474f58
     Pseudo is Norm-conserving + core correction, Zval =  7.0
     Generated using ONCVPSP code by D. R. Hamann
     Using radial grid of  824 points,  5 beta functions with: 
                l(1) =   0
                l(2) =   0
                l(3) =   1
                l(4) =   1
                l(5) =   2

     atomic species   valence    mass     pseudopotential
     Li                3.00     6.94100     Li( 1.00)
     F                 7.00    18.99840     F ( 1.00)

     No symmetry found



   Cartesian axes

     site n.     atom                  positions (alat units)
         1        Li     tau(   1) = (   0.0000000   0.0000000   0.0000000  )
         2        F      tau(   2) = (  -0.7071068   0.7071068   0.7071068  )

     number of k points=    64  Gaussian smearing, width (Ry)=  0.0010
                       cart. coord. in units 2pi/alat
        k(    1) = (   0.0000000   0.0000000   0.0000000), wk =   0.0312500
        k(    2) = (  -0.1767767   0.1767767  -0.1767767), wk =   0.0312500
        k(    3) = (  -0.3535534   0.3535534  -0.3535534), wk =   0.0312500
        k(    4) = (  -0.5303301   0.5303301  -0.5303301), wk =   0.0312500
        k(    5) = (   0.1767767   0.1767767   0.1767767), wk =   0.0312500
        k(    6) = (   0.0000000   0.3535534   0.0000000), wk =   0.0312500
        k(    7) = (  -0.1767767   0.5303301  -0.1767767), wk =   0.0312500
        k(    8) = (  -0.3535534   0.7071068  -0.3535534), wk =   0.0312500
        k(    9) = (   0.3535534   0.3535534   0.3535534), wk =   0.0312500
        k(   10) = (   0.1767767   0.5303301   0.1767767), wk =   0.0312500
        k(   11) = (   0.0000000   0.7071068   0.0000000), wk =   0.0312500
        k(   12) = (  -0.1767767   0.8838835  -0.1767767), wk =   0.0312500
        k(   13) = (   0.5303301   0.5303301   0.5303301), wk =   0.0312500
        k(   14) = (   0.3535534   0.7071068   0.3535534), wk =   0.0312500
        k(   15) = (   0.1767767   0.8838835   0.1767767), wk =   0.0312500
        k(   16) = (   0.0000000   1.0606602   0.0000000), wk =   0.0312500
        k(   17) = (  -0.1767767  -0.1767767   0.1767767), wk =   0.0312500
        k(   18) = (  -0.3535534   0.0000000   0.0000000), wk =   0.0312500
        k(   19) = (  -0.5303301   0.1767767  -0.1767767), wk =   0.0312500
        k(   20) = (  -0.7071068   0.3535534  -0.3535534), wk =   0.0312500
        k(   21) = (   0.0000000   0.0000000   0.3535534), wk =   0.0312500
        k(   22) = (  -0.1767767   0.1767767   0.1767767), wk =   0.0312500
        k(   23) = (  -0.3535534   0.3535534   0.0000000), wk =   0.0312500
        k(   24) = (  -0.5303301   0.5303301  -0.1767767), wk =   0.0312500
        k(   25) = (   0.1767767   0.1767767   0.5303301), wk =   0.0312500
        k(   26) = (   0.0000000   0.3535534   0.3535534), wk =   0.0312500
        k(   27) = (  -0.1767767   0.5303301   0.1767767), wk =   0.0312500
        k(   28) = (  -0.3535534   0.7071068   0.0000000), wk =   0.0312500
        k(   29) = (   0.3535534   0.3535534   0.7071068), wk =   0.0312500
        k(   30) = (   0.1767767   0.5303301   0.5303301), wk =   0.0312500
        k(   31) = (   0.0000000   0.7071068   0.3535534), wk =   0.0312500
        k(   32) = (  -0.1767767   0.8838835   0.1767767), wk =   0.0312500
        k(   33) = (  -0.3535534  -0.3535534   0.3535534), wk =   0.0312500
        k(   34) = (  -0.5303301  -0.1767767   0.1767767), wk =   0.0312500
        k(   35) = (  -0.7071068   0.0000000   0.0000000), wk =   0.0312500
        k(   36) = (  -0.8838835   0.1767767  -0.1767767), wk =   0.0312500
        k(   37) = (  -0.1767767  -0.1767767   0.5303301), wk =   0.0312500
        k(   38) = (  -0.3535534   0.0000000   0.3535534), wk =   0.0312500
        k(   39) = (  -0.5303301   0.1767767   0.1767767), wk =   0.0312500
        k(   40) = (  -0.7071068   0.3535534   0.0000000), wk =   0.0312500
        k(   41) = (   0.0000000   0.0000000   0.7071068), wk =   0.0312500
        k(   42) = (  -0.1767767   0.1767767   0.5303301), wk =   0.0312500
        k(   43) = (  -0.3535534   0.3535534   0.3535534), wk =   0.0312500
        k(   44) = (  -0.5303301   0.5303301   0.1767767), wk =   0.0312500
        k(   45) = (   0.1767767   0.1767767   0.8838835), wk =   0.0312500
        k(   46) = (   0.0000000   0.3535534   0.7071068), wk =   0.0312500
        k(   47) = (  -0.1767767   0.5303301   0.5303301), wk =   0.0312500
        k(   48) = (  -0.3535534   0.7071068   0.3535534), wk =   0.0312500
        k(   49) = (  -0.5303301  -0.5303301   0.5303301), wk =   0.0312500
        k(   50) = (  -0.7071068  -0.3535534   0.3535534), wk =   0.0312500
        k(   51) = (  -0.8838835  -0.1767767   0.1767767), wk =   0.0312500
        k(   52) = (  -1.0606602   0.0000000   0.0000000), wk =   0.0312500
        k(   53) = (  -0.3535534  -0.3535534   0.7071068), wk =   0.0312500
        k(   54) = (  -0.5303301  -0.1767767   0.5303301), wk =   0.0312500
        k(   55) = (  -0.7071068   0.0000000   0.3535534), wk =   0.0312500
        k(   56) = (  -0.8838835   0.1767767   0.1767767), wk =   0.0312500
        k(   57) = (  -0.1767767  -0.1767767   0.8838835), wk =   0.0312500
        k(   58) = (  -0.3535534   0.0000000   0.7071068), wk =   0.0312500
        k(   59) = (  -0.5303301   0.1767767   0.5303301), wk =   0.0312500
        k(   60) = (  -0.7071068   0.3535534   0.3535534), wk =   0.0312500
        k(   61) = (   0.0000000   0.0000000   1.0606602), wk =   0.0312500
        k(   62) = (  -0.1767767   0.1767767   0.8838835), wk =   0.0312500
        k(   63) = (  -0.3535534   0.3535534   0.7071068), wk =   0.0312500
        k(   64) = (  -0.5303301   0.5303301   0.5303301), wk =   0.0312500

     Dense  grid:     7119 G-vectors     FFT dimensions: (  27,  27,  27)

     Estimated max dynamical RAM per process >       2.90 MB

     Estimated total dynamical RAM >     157.43 MB

     Check: negative core charge=   -0.000008

     Initial potential from superposition of free atoms

     starting charge       9.9953, renormalised to      10.0000
     Starting wfcs are    6 randomized atomic wfcs +   14 random wfcs

     total cpu time spent up to now is        0.1 secs

     Self-consistent Calculation

     iteration #  1     ecut=    60.00 Ry     beta= 0.70
     Davidson diagonalization with overlap
     ethr =  1.00E-02,  avg # of iterations =  4.9

     Threshold (ethr) on eigenvalues was too large:
     Diagonalizing with lowered threshold

     Davidson diagonalization with overlap
     ethr =  9.77E-04,  avg # of iterations =  1.9

     total cpu time spent up to now is        0.4 secs

     total energy              =     -63.60671455 Ry
     estimated scf accuracy    <       0.09749441 Ry

     iteration #  2     ecut=    60.00 Ry     beta= 0.70
     Davidson diagonalization with overlap
     ethr =  9.75E-04,  avg # of iterations =  2.0

     total cpu time spent up to now is        0.4 secs

     total energy              =     -63.63023819 Ry
     estimated scf accuracy    <       0.06316752 Ry

     iteration #  3     ecut=    60.00 Ry     beta= 0.70
     Davidson diagonalization with overlap
     ethr =  6.32E-04,  avg # of iterations =  1.0

     total cpu time spent up to now is        0.5 secs

     total energy              =     -63.64396157 Ry
     estimated scf accuracy    <       0.00060267 Ry

     iteration #  4     ecut=    60.00 Ry     beta= 0.70
     Davidson diagonalization with overlap
     ethr =  6.03E-06,  avg # of iterations =  3.0

     total cpu time spent up to now is        0.6 secs

     total energy              =     -63.64408731 Ry
     estimated scf accuracy    <       0.00000745 Ry

     iteration #  5     ecut=    60.00 Ry     beta= 0.70
     Davidson diagonalization with overlap
     ethr =  7.45E-08,  avg # of iterations =  2.3

     total cpu time spent up to now is        0.6 secs

     End of self-consistent calculation

          k = 0.0000 0.0000 0.0000 (   893 PWs)   bands (ev):

   -39.4184 -19.1724   0.3141   0.3141   0.3141   8.9728  23.5284  23.5284
    23.5284  24.0851  24.0851  24.0851  26.9580  31.1988  31.1988  44.3193
    44.3193  44.3193  48.0058  64.2869

          k =-0.1768 0.1768-0.1768 (   896 PWs)   bands (ev):

   -39.3872 -18.9677  -1.0383   0.1965   0.1965  10.2056  17.6922  20.2403
    20.2403  26.6358  27.2124  27.2124  34.7883  34.7883  36.5621  39.7111
    45.3805  45.3805  47.9677  53.5282

          k =-0.3536 0.3536-0.3536 (   886 PWs)   bands (ev):

   -39.3551 -18.7471  -2.1729   0.0949   0.0949  10.6272  16.4702  18.6193
    18.6193  30.0594  30.5574  30.5574  33.1288  36.6444  36.6444  44.6605
    44.6605  46.7090  52.1299  52.3426

          k =-0.5303 0.5303-0.5303 (   896 PWs)   bands (ev):

   -39.3872 -18.9677  -1.0383   0.1965   0.1965  10.2056  17.6922  20.2403
    20.2403  26.6358  27.2124  27.2124  34.7883  34.7883  36.5621  39.7111
    45.3805  45.3805  47.9677  53.5282

          k = 0.1768 0.1768 0.1768 (   896 PWs)   bands (ev):

   -39.3872 -18.9677  -1.0383   0.1965   0.1965  10.2056  17.6922  20.2403
    20.2403  26.6358  27.2124  27.2124  34.7883  34.7883  36.5621  39.7111
    45.3805  45.3805  47.9677  53.5282

          k = 0.0000 0.3536 0.0000 (   881 PWs)   bands (ev):

   -39.3768 -18.8708  -1.0994  -0.1873  -0.1873  11.2576  18.5606  19.4522
    20.2715  20.2715  32.6098  32.6098  33.3518  34.3803  37.0333  42.7963
    43.0016  43.0016  49.8803  52.3846

          k =-0.1768 0.5303-0.1768 (   888 PWs)   bands (ev):

   -39.3471 -18.6156  -2.0344  -0.8381  -0.3025  12.7789  15.5991  18.4653
    19.2759  23.7157  32.5369  33.2515  36.3509  37.8785  38.0290  43.0165
    45.1775  49.1270  50.1672  51.7298

          k =-0.3536 0.7071-0.3536 (   883 PWs)   bands (ev):

   -39.3561 -18.7207  -1.5238  -1.0025   0.0772  11.9139  15.5586  19.1666
    19.1708  28.6154  28.6542  28.7020  36.5298  36.6246  39.6701  42.5585
    46.5140  47.6546  48.9289  52.3282

          k = 0.3536 0.3536 0.3536 (   886 PWs)   bands (ev):

   -39.3551 -18.7471  -2.1729   0.0949   0.0949  10.6272  16.4702  18.6193
    18.6193  30.0594  30.5574  30.5574  33.1288  36.6444  36.6444  44.6605
    44.6605  46.7090  52.1299  52.3426

          k = 0.1768 0.5303 0.1768 (   888 PWs)   bands (ev):

   -39.3471 -18.6156  -2.0344  -0.8381  -0.3025  12.7789  15.5991  18.4653
    19.2759  23.7157  32.5369  33.2515  36.3509  37.8785  38.0290  43.0165
    45.1775  49.1270  50.1672  51.7298

          k = 0.0000 0.7071 0.0000 (   894 PWs)   bands (ev):

   -39.3389 -18.4790  -2.6768  -0.6704  -0.6704  14.5611  16.3177  17.2348
    19.8609  19.8610  32.9447  37.9211  39.3714  41.0674  41.0674  43.2826
    43.5664  43.5664  48.6395  48.6395

          k =-0.1768 0.8839-0.1768 (   888 PWs)   bands (ev):

   -39.3471 -18.6156  -2.0344  -0.8381  -0.3025  12.7789  15.5991  18.4653
    19.2759  23.7157  32.5369  33.2515  36.3509  37.8785  38.0290  43.0165
    45.1775  49.1270  50.1672  51.7298

          k = 0.5303 0.5303 0.5303 (   896 PWs)   bands (ev):

   -39.3872 -18.9677  -1.0383   0.1965   0.1965  10.2056  17.6922  20.2403
    20.2403  26.6358  27.2124  27.2124  34.7883  34.7883  36.5621  39.7111
    45.3805  45.3805  47.9677  53.5282

          k = 0.3536 0.7071 0.3536 (   883 PWs)   bands (ev):

   -39.3561 -18.7207  -1.5238  -1.0025   0.0772  11.9139  15.5586  19.1666
    19.1708  28.6154  28.6542  28.7020  36.5298  36.6246  39.6701  42.5585
    46.5140  47.6546  48.9289  52.3282

          k = 0.1768 0.8839 0.1768 (   888 PWs)   bands (ev):

   -39.3471 -18.6156  -2.0344  -0.8381  -0.3025  12.7789  15.5991  18.4653
    19.2759  23.7157  32.5369  33.2515  36.3509  37.8785  38.0290  43.0165
    45.1775  49.1270  50.1672  51.7298

          k = 0.0000 1.0607 0.0000 (   881 PWs)   bands (ev):

   -39.3768 -18.8708  -1.0994  -0.1873  -0.1873  11.2576  18.5606  19.4522
    20.2715  20.2715  32.6098  32.6098  33.3518  34.3803  37.0333  42.7963
    43.0016  43.0016  49.8803  52.3846

          k =-0.1768-0.1768 0.1768 (   896 PWs)   bands (ev):

   -39.3872 -18.9677  -1.0383   0.1965   0.1965  10.2056  17.6922  20.2403
    20.2403  26.6358  27.2124  27.2124  34.7883  34.7883  36.5621  39.7111
    45.3805  45.3805  47.9677  53.5282

          k =-0.3536 0.0000 0.0000 (   881 PWs)   bands (ev):

   -39.3768 -18.8708  -1.0994  -0.1873  -0.1873  11.2576  18.5606  19.4522
    20.2715  20.2715  32.6098  32.6098  33.3518  34.3803  37.0333  42.7963
    43.0016  43.0016  49.8803  52.3846

          k =-0.5303 0.1768-0.1768 (   888 PWs)   bands (ev):

   -39.3471 -18.6156  -2.0344  -0.8381  -0.3025  12.7789  15.5990  18.4653
    19.2759  23.7157  32.5369  33.2515  36.3509  37.8785  38.0290  43.0165
    45.1775  49.1270  50.1672  51.7298

          k =-0.7071 0.3536-0.3536 (   883 PWs)   bands (ev):

   -39.3561 -18.7207  -1.5238  -1.0025   0.0772  11.9138  15.5586  19.1666
    19.1708  28.6154  28.6542  28.7020  36.5298  36.6246  39.6701  42.5585
    46.5140  47.6546  48.9289  52.3282

          k = 0.0000 0.0000 0.3536 (   881 PWs)   bands (ev):

   -39.3768 -18.8708  -1.0994  -0.1873  -0.1873  11.2576  18.5606  19.4522
    20.2715  20.2715  32.6098  32.6098  33.3518  34.3803  37.0333  42.7963
    43.0016  43.0016  49.8803  52.3846

          k =-0.1768 0.1768 0.1768 (   896 PWs)   bands (ev):

   -39.3872 -18.9677  -1.0383   0.1965   0.1965  10.2056  17.6922  20.2403
    20.2403  26.6358  27.2124  27.2124  34.7883  34.7883  36.5621  39.7111
    45.3805  45.3805  47.9677  53.5282

          k =-0.3536 0.3536 0.0000 (   883 PWs)   bands (ev):

   -39.3561 -18.7207  -1.5238  -1.0025   0.0772  11.9138  15.5586  19.1666
    19.1708  28.6154  28.6542  28.7020  36.5298  36.6246  39.6701  42.5585
    46.5140  47.6546  48.9289  52.3282

          k =-0.5303 0.5303-0.1768 (   888 PWs)   bands (ev):

   -39.3471 -18.6156  -2.0344  -0.8381  -0.3025  12.7789  15.5991  18.4653
    19.2759  23.7157  32.5369  33.2515  36.3509  37.8785  38.0290  43.0165
    45.1775  49.1270  50.1672  51.7298

          k = 0.1768 0.1768 0.5303 (   888 PWs)   bands (ev):

   -39.3471 -18.6156  -2.0344  -0.8381  -0.3025  12.7789  15.5991  18.4653
    19.2759  23.7157  32.5369  33.2515  36.3509  37.8785  38.0290  43.0165
    45.1775  49.1270  50.1672  51.7298

          k = 0.0000 0.3536 0.3536 (   883 PWs)   bands (ev):

   -39.3561 -18.7207  -1.5238  -1.0025   0.0772  11.9138  15.5586  19.1666
    19.1708  28.6154  28.6542  28.7020  36.5298  36.6246  39.6701  42.5585
    46.5140  47.6546  48.9289  52.3282

          k =-0.1768 0.5303 0.1768 (   888 PWs)   bands (ev):

   -39.3471 -18.6156  -2.0344  -0.8381  -0.3025  12.7789  15.5991  18.4653
    19.2759  23.7157  32.5369  33.2515  36.3509  37.8785  38.0290  43.0165
    45.1775  49.1270  50.1672  51.7298

          k =-0.3536 0.7071 0.0000 (   892 PWs)   bands (ev):

   -39.3383 -18.5069  -1.7493  -1.7493  -0.4667  14.8220  14.8220  17.1587
    18.9828  27.0717  27.0717  33.6014  37.5954  41.6679  41.6679  42.2492
    44.8123  50.1945  51.2211  51.2211

          k = 0.3536 0.3536 0.7071 (   883 PWs)   bands (ev):

   -39.3561 -18.7207  -1.5238  -1.0025   0.0772  11.9138  15.5586  19.1666
    19.1708  28.6154  28.6542  28.7020  36.5298  36.6246  39.6701  42.5585
    46.5140  47.6546  48.9289  52.3282

          k = 0.1768 0.5303 0.5303 (   888 PWs)   bands (ev):

   -39.3471 -18.6156  -2.0344  -0.8381  -0.3025  12.7789  15.5991  18.4653
    19.2759  23.7157  32.5369  33.2515  36.3509  37.8785  38.0290  43.0165
    45.1775  49.1270  50.1672  51.7298

          k = 0.0000 0.7071 0.3536 (   892 PWs)   bands (ev):

   -39.3383 -18.5069  -1.7493  -1.7493  -0.4667  14.8220  14.8220  17.1587
    18.9828  27.0717  27.0717  33.6014  37.5954  41.6679  41.6679  42.2492
    44.8123  50.1945  51.2211  51.2211

          k =-0.1768 0.8839 0.1768 (   888 PWs)   bands (ev):

   -39.3471 -18.6156  -2.0344  -0.8381  -0.3025  12.7789  15.5991  18.4653
    19.2759  23.7157  32.5369  33.2515  36.3509  37.8785  38.0290  43.0165
    45.1775  49.1270  50.1672  51.7298

          k =-0.3536-0.3536 0.3536 (   886 PWs)   bands (ev):

   -39.3551 -18.7471  -2.1729   0.0949   0.0949  10.6272  16.4702  18.6193
    18.6193  30.0594  30.5574  30.5574  33.1288  36.6444  36.6444  44.6605
    44.6605  46.7090  52.1299  52.3426

          k =-0.5303-0.1768 0.1768 (   888 PWs)   bands (ev):

   -39.3471 -18.6156  -2.0344  -0.8381  -0.3025  12.7789  15.5991  18.4653
    19.2759  23.7157  32.5369  33.2515  36.3509  37.8785  38.0290  43.0165
    45.1775  49.1270  50.1672  51.7298

          k =-0.7071 0.0000 0.0000 (   894 PWs)   bands (ev):

   -39.3389 -18.4790  -2.6768  -0.6704  -0.6704  14.5611  16.3177  17.2348
    19.8609  19.8610  32.9447  37.9211  39.3714  41.0674  41.0674  43.2826
    43.5664  43.5664  48.6395  48.6395

          k =-0.8839 0.1768-0.1768 (   888 PWs)   bands (ev):

   -39.3471 -18.6156  -2.0344  -0.8381  -0.3025  12.7789  15.5991  18.4653
    19.2759  23.7157  32.5369  33.2515  36.3509  37.8785  38.0290  43.0165
    45.1775  49.1270  50.1672  51.7298

          k =-0.1768-0.1768 0.5303 (   888 PWs)   bands (ev):

   -39.3471 -18.6156  -2.0344  -0.8381  -0.3025  12.7789  15.5991  18.4653
    19.2759  23.7157  32.5369  33.2515  36.3509  37.8785  38.0290  43.0165
    45.1775  49.1270  50.1672  51.7298

          k =-0.3536 0.0000 0.3536 (   883 PWs)   bands (ev):

   -39.3561 -18.7207  -1.5238  -1.0025   0.0772  11.9138  15.5586  19.1666
    19.1708  28.6154  28.6542  28.7020  36.5298  36.6246  39.6701  42.5585
    46.5140  47.6546  48.9289  52.3282

          k =-0.5303 0.1768 0.1768 (   888 PWs)   bands (ev):

   -39.3471 -18.6156  -2.0344  -0.8381  -0.3025  12.7789  15.5991  18.4653
    19.2759  23.7157  32.5369  33.2515  36.3509  37.8785  38.0290  43.0165
    45.1775  49.1270  50.1672  51.7298

          k =-0.7071 0.3536 0.0000 (   892 PWs)   bands (ev):

   -39.3383 -18.5069  -1.7493  -1.7493  -0.4667  14.8220  14.8220  17.1587
    18.9828  27.0717  27.0717  33.6014  37.5954  41.6679  41.6679  42.2492
    44.8123  50.1945  51.2211  51.2211

          k = 0.0000 0.0000 0.7071 (   894 PWs)   bands (ev):

   -39.3389 -18.4790  -2.6768  -0.6704  -0.6704  14.5611  16.3177  17.2348
    19.8609  19.8609  32.9447  37.9211  39.3714  41.0674  41.0674  43.2826
    43.5664  43.5664  48.6395  48.6395

          k =-0.1768 0.1768 0.5303 (   888 PWs)   bands (ev):

   -39.3471 -18.6156  -2.0344  -0.8381  -0.3025  12.7789  15.5991  18.4653
    19.2759  23.7157  32.5369  33.2515  36.3509  37.8785  38.0290  43.0165
    45.1775  49.1270  50.1672  51.7298

          k =-0.3536 0.3536 0.3536 (   886 PWs)   bands (ev):

   -39.3551 -18.7471  -2.1729   0.0949   0.0949  10.6272  16.4702  18.6193
    18.6193  30.0594  30.5574  30.5574  33.1288  36.6444  36.6444  44.6605
    44.6605  46.7090  52.1299  52.3426

          k =-0.5303 0.5303 0.1768 (   888 PWs)   bands (ev):

   -39.3471 -18.6156  -2.0344  -0.8381  -0.3025  12.7789  15.5991  18.4653
    19.2759  23.7157  32.5369  33.2515  36.3509  37.8785  38.0290  43.0165
    45.1775  49.1270  50.1672  51.7298

          k = 0.1768 0.1768 0.8839 (   888 PWs)   bands (ev):

   -39.3471 -18.6156  -2.0344  -0.8381  -0.3025  12.7789  15.5991  18.4653
    19.2759  23.7157  32.5369  33.2515  36.3509  37.8785  38.0290  43.0165
    45.1775  49.1270  50.1672  51.7298

          k = 0.0000 0.3536 0.7071 (   892 PWs)   bands (ev):

   -39.3383 -18.5069  -1.7493  -1.7493  -0.4667  14.8220  14.8220  17.1587
    18.9828  27.0717  27.0717  33.6014  37.5954  41.6679  41.6679  42.2492
    44.8123  50.1945  51.2211  51.2211

          k =-0.1768 0.5303 0.5303 (   888 PWs)   bands (ev):

   -39.3471 -18.6156  -2.0344  -0.8381  -0.3025  12.7789  15.5991  18.4653
    19.2759  23.7157  32.5369  33.2515  36.3509  37.8785  38.0290  43.0165
    45.1775  49.1270  50.1672  51.7298

          k =-0.3536 0.7071 0.3536 (   883 PWs)   bands (ev):

   -39.3561 -18.7207  -1.5238  -1.0025   0.0772  11.9138  15.5586  19.1666
    19.1708  28.6154  28.6542  28.7020  36.5298  36.6246  39.6701  42.5585
    46.5140  47.6546  48.9289  52.3282

          k =-0.5303-0.5303 0.5303 (   896 PWs)   bands (ev):

   -39.3872 -18.9677  -1.0383   0.1965   0.1965  10.2056  17.6922  20.2403
    20.2403  26.6358  27.2124  27.2124  34.7883  34.7883  36.5621  39.7111
    45.3805  45.3805  47.9677  53.5282

          k =-0.7071-0.3536 0.3536 (   883 PWs)   bands (ev):

   -39.3561 -18.7207  -1.5238  -1.0025   0.0772  11.9138  15.5586  19.1666
    19.1708  28.6154  28.6542  28.7020  36.5298  36.6246  39.6701  42.5585
    46.5140  47.6546  48.9289  52.3282

          k =-0.8839-0.1768 0.1768 (   888 PWs)   bands (ev):

   -39.3471 -18.6156  -2.0344  -0.8381  -0.3025  12.7789  15.5990  18.4653
    19.2759  23.7157  32.5369  33.2515  36.3509  37.8785  38.0290  43.0165
    45.1775  49.1270  50.1672  51.7298

          k =-1.0607 0.0000 0.0000 (   881 PWs)   bands (ev):

   -39.3768 -18.8708  -1.0994  -0.1873  -0.1873  11.2576  18.5606  19.4522
    20.2715  20.2715  32.6098  32.6098  33.3518  34.3803  37.0333  42.7963
    43.0016  43.0016  49.8803  52.3846

          k =-0.3536-0.3536 0.7071 (   883 PWs)   bands (ev):

   -39.3561 -18.7207  -1.5238  -1.0025   0.0772  11.9138  15.5586  19.1666
    19.1708  28.6154  28.6542  28.7020  36.5298  36.6246  39.6701  42.5585
    46.5140  47.6546  48.9289  52.3282

          k =-0.5303-0.1768 0.5303 (   888 PWs)   bands (ev):

   -39.3471 -18.6156  -2.0344  -0.8381  -0.3025  12.7789  15.5991  18.4653
    19.2759  23.7157  32.5369  33.2515  36.3509  37.8785  38.0290  43.0165
    45.1775  49.1270  50.1672  51.7298

          k =-0.7071 0.0000 0.3536 (   892 PWs)   bands (ev):

   -39.3383 -18.5069  -1.7493  -1.7493  -0.4667  14.8220  14.8220  17.1587
    18.9828  27.0717  27.0717  33.6014  37.5954  41.6679  41.6679  42.2492
    44.8123  50.1945  51.2211  51.2211

          k =-0.8839 0.1768 0.1768 (   888 PWs)   bands (ev):

   -39.3471 -18.6156  -2.0344  -0.8381  -0.3025  12.7789  15.5991  18.4653
    19.2759  23.7157  32.5369  33.2515  36.3509  37.8785  38.0290  43.0165
    45.1775  49.1270  50.1672  51.7298

          k =-0.1768-0.1768 0.8839 (   888 PWs)   bands (ev):

   -39.3471 -18.6156  -2.0344  -0.8381  -0.3025  12.7789  15.5991  18.4653
    19.2759  23.7157  32.5369  33.2515  36.3509  37.8785  38.0290  43.0165
    45.1775  49.1270  50.1672  51.7298

          k =-0.3536 0.0000 0.7071 (   892 PWs)   bands (ev):

   -39.3383 -18.5069  -1.7493  -1.7493  -0.4667  14.8220  14.8220  17.1587
    18.9828  27.0717  27.0717  33.6014  37.5954  41.6679  41.6679  42.2492
    44.8123  50.1945  51.2211  51.2211

          k =-0.5303 0.1768 0.5303 (   888 PWs)   bands (ev):

   -39.3471 -18.6156  -2.0344  -0.8381  -0.3025  12.7789  15.5991  18.4653
    19.2759  23.7157  32.5369  33.2515  36.3509  37.8785  38.0290  43.0165
    45.1775  49.1270  50.1672  51.7298

          k =-0.7071 0.3536 0.3536 (   883 PWs)   bands (ev):

   -39.3561 -18.7207  -1.5238  -1.0025   0.0772  11.9138  15.5586  19.1666
    19.1708  28.6154  28.6542  28.7020  36.5298  36.6246  39.6701  42.5585
    46.5140  47.6546  48.9289  52.3282

          k = 0.0000 0.0000 1.0607 (   881 PWs)   bands (ev):

   -39.3768 -18.8708  -1.0994  -0.1873  -0.1873  11.2576  18.5606  19.4522
    20.2715  20.2715  32.6098  32.6098  33.3518  34.3803  37.0333  42.7963
    43.0016  43.0016  49.8803  52.3846

          k =-0.1768 0.1768 0.8839 (   888 PWs)   bands (ev):

   -39.3471 -18.6156  -2.0344  -0.8381  -0.3025  12.7789  15.5991  18.4653
    19.2759  23.7157  32.5369  33.2515  36.3509  37.8785  38.0290  43.0165
    45.1775  49.1270  50.1672  51.7298

          k =-0.3536 0.3536 0.7071 (   883 PWs)   bands (ev):

   -39.3561 -18.7207  -1.5238  -1.0025   0.0772  11.9138  15.5586  19.1666
    19.1708  28.6154  28.6542  28.7020  36.5298  36.6246  39.6701  42.5585
    46.5140  47.6546  48.9289  52.3282

          k =-0.5303 0.5303 0.5303 (   896 PWs)   bands (ev):

   -39.3872 -18.9677  -1.0383   0.1965   0.1965  10.2056  17.6922  20.2403
    20.2403  26.6358  27.2124  27.2124  34.7883  34.7883  36.5621  39.7111
    45.3805  45.3805  47.9677  53.5282

     the Fermi energy is     5.9357 ev

!    total energy              =     -63.64408781 Ry
     estimated scf accuracy    <       0.00000039 Ry
     smearing contrib. (-TS)   =      -0.00000000 Ry
     internal energy E=F+TS    =     -63.64408781 Ry

     The total energy is F=E-TS. E is the sum of the following terms:
     one-electron contribution =     -25.51673934 Ry
     hartree contribution      =      16.60135782 Ry
     xc contribution           =     -14.09285655 Ry
     ewald contribution        =     -40.63584973 Ry

     convergence has been achieved in   5 iterations

     Forces acting on atoms (cartesian axes, Ry/au):

     atom    1 type  1   force =    -0.00000000    0.00000011   -0.00000009
     atom    2 type  2   force =     0.00000000   -0.00000011    0.00000009

     Total force =     0.000000     Total SCF correction =     0.000001
     SCF correction compared to forces is large: reduce conv_thr to get better values


     Computing stress (Cartesian axis) and pressure

          total   stress  (Ry/bohr**3)                   (kbar)     P=     -242.20
  -0.00164643   0.00000001   0.00000000         -242.20        0.00        0.00
   0.00000001  -0.00164643  -0.00000000            0.00     -242.20       -0.00
   0.00000000  -0.00000000  -0.00164641            0.00       -0.00     -242.20


     Writing all to output data dir ./LiF.save/ :
     XML data file, charge density, pseudopotentials, collected wavefunctions
 
     init_run     :      0.04s CPU      0.05s WALL (       1 calls)
     electrons    :      0.50s CPU      0.53s WALL (       1 calls)
     forces       :      0.00s CPU      0.00s WALL (       1 calls)
     stress       :      0.01s CPU      0.01s WALL (       1 calls)

     Called by init_run:
     wfcinit      :      0.02s CPU      0.02s WALL (       1 calls)
     potinit      :      0.02s CPU      0.02s WALL (       1 calls)
     hinit0       :      0.00s CPU      0.01s WALL (       1 calls)

     Called by electrons:
     c_bands      :      0.46s CPU      0.48s WALL (       6 calls)
     sum_band     :      0.04s CPU      0.05s WALL (       6 calls)
     v_of_rho     :      0.00s CPU      0.00s WALL (       6 calls)
     mix_rho      :      0.00s CPU      0.00s WALL (       6 calls)

     Called by c_bands:
     init_us_2    :      0.00s CPU      0.00s WALL (     240 calls)
     cegterg      :      0.38s CPU      0.40s WALL (      96 calls)

     Called by *egterg:
     cdiaghg      :      0.15s CPU      0.15s WALL (     316 calls)
     h_psi        :      0.22s CPU      0.23s WALL (     348 calls)
     g_psi        :      0.00s CPU      0.00s WALL (     236 calls)

     Called by h_psi:
     h_psi:calbec :      0.01s CPU      0.01s WALL (     348 calls)
     vloc_psi     :      0.20s CPU      0.22s WALL (     348 calls)
                                        0.00s GPU  (     348 calls)
     add_vuspsi   :      0.00s CPU      0.00s WALL (     348 calls)

     General routines
     calbec       :      0.01s CPU      0.02s WALL (     620 calls)
     fft          :      0.00s CPU      0.00s WALL (      26 calls)
     ffts         :      0.00s CPU      0.00s WALL (       6 calls)
     fftw         :      0.22s CPU      0.24s WALL (   12224 calls)
 
     Parallel routines
 
     PWSCF        :      0.63s CPU      0.77s WALL

 
   This run was terminated on:  22:15: 0   3Jul2026            

=------------------------------------------------------------------------------=
   JOB DONE.
=------------------------------------------------------------------------------=
Error in system call pthread_mutex_destroy: Device or resource busy
    src/mpi/init/initthread.c:242
Error in system call pthread_mutex_destroy: Device or resource busy
    src/mpi/init/initthread.c:242
Error in system call pthread_mutex_destroy: Device or resource busy
    src/mpi/init/initthread.c:242
Error in system call pthread_mutex_destroy: Device or resource busy
    src/mpi/init/initthread.c:242
Error in system call pthread_mutex_destroy: Device or resource busy
    src/mpi/init/initthread.c:242
Error in system call pthread_mutex_destroy: Device or resource busy
    src/mpi/init/initthread.c:242
Error in system call pthread_mutex_destroy: Device or resource busy
    src/mpi/init/initthread.c:242
Error in system call pthread_mutex_destroy: Device or resource busy
    src/mpi/init/initthread.c:242
Error in system call pthread_mutex_destroy: Device or resource busy
    src/mpi/init/initthread.c:242
Error in system call pthread_mutex_destroy: Device or resource busy
    src/mpi/init/initthread.c:242
Error in system call pthread_mutex_destroy: Device or resource busy
    src/mpi/init/initthread.c:242
Error in system call pthread_mutex_destroy: Device or resource busy
    src/mpi/init/initthread.c:242
Error in system call pthread_mutex_destroy: Device or resource busy
    src/mpi/init/initthread.c:242
Error in system call pthread_mutex_destroy: Device or resource busy
    src/mpi/init/initthread.c:242
Error in system call pthread_mutex_destroy: Device or resource busy
    src/mpi/init/initthread.c:242
Error in system call pthread_mutex_destroy: Device or resource busy
    src/mpi/init/initthread.c:242
Error in system call pthread_mutex_destroy: Device or resource busy
    src/mpi/init/initthread.c:242
Error in system call pthread_mutex_destroy: Device or resource busy
    src/mpi/init/initthread.c:242
Error in system call pthread_mutex_destroy: Device or resource busy
    src/mpi/init/initthread.c:242
Error in system call pthread_mutex_destroy: Device or resource busy
    src/mpi/init/initthread.c:242
Error in system call pthread_mutex_destroy: Device or resource busy
    src/mpi/init/initthread.c:242
Error in system call pthread_mutex_destroy: Device or resource busy
    src/mpi/init/initthread.c:242
Error in system call pthread_mutex_destroy: Device or resource busy
    src/mpi/init/initthread.c:242
Error in system call pthread_mutex_destroy: Device or resource busy
    src/mpi/init/initthread.c:242
Error in system call pthread_mutex_destroy: Device or resource busy
    src/mpi/init/initthread.c:242
Error in system call pthread_mutex_destroy: Device or resource busy
    src/mpi/init/initthread.c:242
Error in system call pthread_mutex_destroy: Device or resource busy
    src/mpi/init/initthread.c:242
Error in system call pthread_mutex_destroy: Device or resource busy
    src/mpi/init/initthread.c:242
Error in system call pthread_mutex_destroy: Device or resource busy
    src/mpi/init/initthread.c:242
Error in system call pthread_mutex_destroy: Device or resource busy
    src/mpi/init/initthread.c:242
Error in system call pthread_mutex_destroy: Device or resource busy
    src/mpi/init/initthread.c:242
Error in system call pthread_mutex_destroy: Device or resource busy
    src/mpi/init/initthread.c:242
Error in system call pthread_mutex_destroy: Device or resource busy
    src/mpi/init/initthread.c:242
Error in system call pthread_mutex_destroy: Device or resource busy
    src/mpi/init/initthread.c:242
Error in system call pthread_mutex_destroy: Device or resource busy
    src/mpi/init/initthread.c:242
Error in system call pthread_mutex_destroy: Device or resource busy
    src/mpi/init/initthread.c:242
Error in system call pthread_mutex_destroy: Device or resource busy
    src/mpi/init/initthread.c:242
Error in system call pthread_mutex_destroy: Device or resource busy
    src/mpi/init/initthread.c:242
Error in system call pthread_mutex_destroy: Device or resource busy
    src/mpi/init/initthread.c:242
Error in system call pthread_mutex_destroy: Device or resource busy
    src/mpi/init/initthread.c:242
Error in system call pthread_mutex_destroy: Device or resource busy
    src/mpi/init/initthread.c:242
Error in system call pthread_mutex_destroy: Device or resource busy
    src/mpi/init/initthread.c:242
Error in system call pthread_mutex_destroy: Device or resource busy
    src/mpi/init/initthread.c:242
Error in system call pthread_mutex_destroy: Device or resource busy
    src/mpi/init/initthread.c:242
Error in system call pthread_mutex_destroy: Device or resource busy
    src/mpi/init/initthread.c:242
Error in system call pthread_mutex_destroy: Device or resource busy
    src/mpi/init/initthread.c:242
Error in system call pthread_mutex_destroy: Device or resource busy
    src/mpi/init/initthread.c:242
Error in system call pthread_mutex_destroy: Device or resource busy
    src/mpi/init/initthread.c:242
Error in system call pthread_mutex_destroy: Device or resource busy
    src/mpi/init/initthread.c:242
Error in system call pthread_mutex_destroy: Device or resource busy
    src/mpi/init/initthread.c:242
Error in system call pthread_mutex_destroy: Device or resource busy
    src/mpi/init/initthread.c:242
Error in system call pthread_mutex_destroy: Device or resource busy
    src/mpi/init/initthread.c:242
Error in system call pthread_mutex_destroy: Device or resource busy
    src/mpi/init/initthread.c:242
Error in system call pthread_mutex_destroy: Device or resource busy
    src/mpi/init/initthread.c:242
Error in system call pthread_mutex_destroy: Device or resource busy
    src/mpi/init/initthread.c:242
Error in system call pthread_mutex_destroy: Device or resource busy
    src/mpi/init/initthread.c:242
